*HEADING
V10X independent cyclic plasticity C3D8 benchmark: v10x_cyclic_008
*NODE,NSET=ALL
1,0.000000000000,-5.000000000000,-5.000000000000
2,0.000000000000,-5.000000000000,0.000000000000
3,0.000000000000,-5.000000000000,5.000000000000
4,0.000000000000,0.000000000000,-5.000000000000
5,0.000000000000,0.000000000000,0.000000000000
6,0.000000000000,0.000000000000,5.000000000000
7,0.000000000000,5.000000000000,-5.000000000000
8,0.000000000000,5.000000000000,0.000000000000
9,0.000000000000,5.000000000000,5.000000000000
10,125.000000000000,-5.000000000000,-5.000000000000
11,125.000000000000,-5.000000000000,0.000000000000
12,125.000000000000,-5.000000000000,5.000000000000
13,125.000000000000,0.000000000000,-5.000000000000
14,125.000000000000,0.000000000000,0.000000000000
15,125.000000000000,0.000000000000,5.000000000000
16,125.000000000000,5.000000000000,-5.000000000000
17,125.000000000000,5.000000000000,0.000000000000
18,125.000000000000,5.000000000000,5.000000000000
19,250.000000000000,-5.000000000000,-5.000000000000
20,250.000000000000,-5.000000000000,0.000000000000
21,250.000000000000,-5.000000000000,5.000000000000
22,250.000000000000,0.000000000000,-5.000000000000
23,250.000000000000,0.000000000000,0.000000000000
24,250.000000000000,0.000000000000,5.000000000000
25,250.000000000000,5.000000000000,-5.000000000000
26,250.000000000000,5.000000000000,0.000000000000
27,250.000000000000,5.000000000000,5.000000000000
28,375.000000000000,-5.000000000000,-5.000000000000
29,375.000000000000,-5.000000000000,0.000000000000
30,375.000000000000,-5.000000000000,5.000000000000
31,375.000000000000,0.000000000000,-5.000000000000
32,375.000000000000,0.000000000000,0.000000000000
33,375.000000000000,0.000000000000,5.000000000000
34,375.000000000000,5.000000000000,-5.000000000000
35,375.000000000000,5.000000000000,0.000000000000
36,375.000000000000,5.000000000000,5.000000000000
37,500.000000000000,-5.000000000000,-5.000000000000
38,500.000000000000,-5.000000000000,0.000000000000
39,500.000000000000,-5.000000000000,5.000000000000
40,500.000000000000,0.000000000000,-5.000000000000
41,500.000000000000,0.000000000000,0.000000000000
42,500.000000000000,0.000000000000,5.000000000000
43,500.000000000000,5.000000000000,-5.000000000000
44,500.000000000000,5.000000000000,0.000000000000
45,500.000000000000,5.000000000000,5.000000000000
46,625.000000000000,-5.000000000000,-5.000000000000
47,625.000000000000,-5.000000000000,0.000000000000
48,625.000000000000,-5.000000000000,5.000000000000
49,625.000000000000,0.000000000000,-5.000000000000
50,625.000000000000,0.000000000000,0.000000000000
51,625.000000000000,0.000000000000,5.000000000000
52,625.000000000000,5.000000000000,-5.000000000000
53,625.000000000000,5.000000000000,0.000000000000
54,625.000000000000,5.000000000000,5.000000000000
55,750.000000000000,-5.000000000000,-5.000000000000
56,750.000000000000,-5.000000000000,0.000000000000
57,750.000000000000,-5.000000000000,5.000000000000
58,750.000000000000,0.000000000000,-5.000000000000
59,750.000000000000,0.000000000000,0.000000000000
60,750.000000000000,0.000000000000,5.000000000000
61,750.000000000000,5.000000000000,-5.000000000000
62,750.000000000000,5.000000000000,0.000000000000
63,750.000000000000,5.000000000000,5.000000000000
64,875.000000000000,-5.000000000000,-5.000000000000
65,875.000000000000,-5.000000000000,0.000000000000
66,875.000000000000,-5.000000000000,5.000000000000
67,875.000000000000,0.000000000000,-5.000000000000
68,875.000000000000,0.000000000000,0.000000000000
69,875.000000000000,0.000000000000,5.000000000000
70,875.000000000000,5.000000000000,-5.000000000000
71,875.000000000000,5.000000000000,0.000000000000
72,875.000000000000,5.000000000000,5.000000000000
73,1000.000000000000,-5.000000000000,-5.000000000000
74,1000.000000000000,-5.000000000000,0.000000000000
75,1000.000000000000,-5.000000000000,5.000000000000
76,1000.000000000000,0.000000000000,-5.000000000000
77,1000.000000000000,0.000000000000,0.000000000000
78,1000.000000000000,0.000000000000,5.000000000000
79,1000.000000000000,5.000000000000,-5.000000000000
80,1000.000000000000,5.000000000000,0.000000000000
81,1000.000000000000,5.000000000000,5.000000000000
*ELEMENT,TYPE=C3D8,ELSET=BAR
1,1,10,13,4,2,11,14,5
2,2,11,14,5,3,12,15,6
3,4,13,16,7,5,14,17,8
4,5,14,17,8,6,15,18,9
5,10,19,22,13,11,20,23,14
6,11,20,23,14,12,21,24,15
7,13,22,25,16,14,23,26,17
8,14,23,26,17,15,24,27,18
9,19,28,31,22,20,29,32,23
10,20,29,32,23,21,30,33,24
11,22,31,34,25,23,32,35,26
12,23,32,35,26,24,33,36,27
13,28,37,40,31,29,38,41,32
14,29,38,41,32,30,39,42,33
15,31,40,43,34,32,41,44,35
16,32,41,44,35,33,42,45,36
17,37,46,49,40,38,47,50,41
18,38,47,50,41,39,48,51,42
19,40,49,52,43,41,50,53,44
20,41,50,53,44,42,51,54,45
21,46,55,58,49,47,56,59,50
22,47,56,59,50,48,57,60,51
23,49,58,61,52,50,59,62,53
24,50,59,62,53,51,60,63,54
25,55,64,67,58,56,65,68,59
26,56,65,68,59,57,66,69,60
27,58,67,70,61,59,68,71,62
28,59,68,71,62,60,69,72,63
29,64,73,76,67,65,74,77,68
30,65,74,77,68,66,75,78,69
31,67,76,79,70,68,77,80,71
32,68,77,80,71,69,78,81,72
*NSET,NSET=BASE
1,2,3,4,5,6,7,8,9
*NSET,NSET=TIP
73,74,75,76,77,78,79,80,81
*NSET,NSET=YSYM
4,5,6,13,14,15,22,23,24,31,32,33,40,41,42,49
50,51,58,59,60,67,68,69,76,77,78
*NSET,NSET=ZSYM
2,5,8,11,14,17,20,23,26,29,32,35,38,41,44,47
50,53,56,59,62,65,68,71,74,77,80
*MATERIAL,NAME=GENERIC_LINEAR_HARDENING
*ELASTIC
200000.000000000000,0.300000000000
*PLASTIC
250.000000000000,0.000000000000
275.000000000000,0.025000000000
*SOLID SECTION,ELSET=BAR,MATERIAL=GENERIC_LINEAR_HARDENING
*STEP,INC=1000
*STATIC
0.02,1,1e-08,0.05
*BOUNDARY
BASE,1,1,0.0
YSYM,2,2,0.0
ZSYM,3,3,0.0
TIP,1,1,2.500000000000
*NODE FILE
U,RF
*NODE PRINT,NSET=TIP,FREQUENCY=1
U
*NODE PRINT,NSET=BASE,TOTALS=ONLY,FREQUENCY=1
RF
*NODE PRINT,NSET=TIP,TOTALS=ONLY,FREQUENCY=1
RF
*END STEP
*STEP,INC=1000
*STATIC
0.02,1,1e-08,0.05
*BOUNDARY
BASE,1,1,0.0
YSYM,2,2,0.0
ZSYM,3,3,0.0
TIP,1,1,0.000000000000
*NODE FILE
U,RF
*NODE PRINT,NSET=TIP,FREQUENCY=1
U
*NODE PRINT,NSET=BASE,TOTALS=ONLY,FREQUENCY=1
RF
*NODE PRINT,NSET=TIP,TOTALS=ONLY,FREQUENCY=1
RF
*END STEP
*STEP,INC=1000
*STATIC
0.02,1,1e-08,0.05
*BOUNDARY
BASE,1,1,0.0
YSYM,2,2,0.0
ZSYM,3,3,0.0
TIP,1,1,-2.500000000000
*NODE FILE
U,RF
*NODE PRINT,NSET=TIP,FREQUENCY=1
U
*NODE PRINT,NSET=BASE,TOTALS=ONLY,FREQUENCY=1
RF
*NODE PRINT,NSET=TIP,TOTALS=ONLY,FREQUENCY=1
RF
*END STEP
*STEP,INC=1000
*STATIC
0.02,1,1e-08,0.05
*BOUNDARY
BASE,1,1,0.0
YSYM,2,2,0.0
ZSYM,3,3,0.0
TIP,1,1,0.000000000000
*NODE FILE
U,RF
*NODE PRINT,NSET=TIP,FREQUENCY=1
U
*NODE PRINT,NSET=BASE,TOTALS=ONLY,FREQUENCY=1
RF
*NODE PRINT,NSET=TIP,TOTALS=ONLY,FREQUENCY=1
RF
*END STEP
*STEP,INC=1000
*STATIC
0.02,1,1e-08,0.05
*BOUNDARY
BASE,1,1,0.0
YSYM,2,2,0.0
ZSYM,3,3,0.0
TIP,1,1,2.500000000000
*NODE FILE
U,RF
*NODE PRINT,NSET=TIP,FREQUENCY=1
U
*NODE PRINT,NSET=BASE,TOTALS=ONLY,FREQUENCY=1
RF
*NODE PRINT,NSET=TIP,TOTALS=ONLY,FREQUENCY=1
RF
*END STEP
