*HEADING
V10X independent cyclic plasticity C3D8 benchmark: v10x_cyclic_001
*NODE,NSET=ALL
1,0.000000000000,-5.000000000000,-5.000000000000
2,0.000000000000,-5.000000000000,0.000000000000
3,0.000000000000,-5.000000000000,5.000000000000
4,0.000000000000,0.000000000000,-5.000000000000
5,0.000000000000,0.000000000000,0.000000000000
6,0.000000000000,0.000000000000,5.000000000000
7,0.000000000000,5.000000000000,-5.000000000000
8,0.000000000000,5.000000000000,0.000000000000
9,0.000000000000,5.000000000000,5.000000000000
10,1000.000000000000,-5.000000000000,-5.000000000000
11,1000.000000000000,-5.000000000000,0.000000000000
12,1000.000000000000,-5.000000000000,5.000000000000
13,1000.000000000000,0.000000000000,-5.000000000000
14,1000.000000000000,0.000000000000,0.000000000000
15,1000.000000000000,0.000000000000,5.000000000000
16,1000.000000000000,5.000000000000,-5.000000000000
17,1000.000000000000,5.000000000000,0.000000000000
18,1000.000000000000,5.000000000000,5.000000000000
*ELEMENT,TYPE=C3D8,ELSET=BAR
1,1,10,13,4,2,11,14,5
2,2,11,14,5,3,12,15,6
3,4,13,16,7,5,14,17,8
4,5,14,17,8,6,15,18,9
*NSET,NSET=BASE
1,2,3,4,5,6,7,8,9
*NSET,NSET=TIP
10,11,12,13,14,15,16,17,18
*NSET,NSET=YSYM
4,5,6,13,14,15
*NSET,NSET=ZSYM
2,5,8,11,14,17
*MATERIAL,NAME=GENERIC_LINEAR_HARDENING
*ELASTIC
200000.000000000000,0.300000000000
*PLASTIC
250.000000000000,0.000000000000
275.000000000000,0.025000000000
*SOLID SECTION,ELSET=BAR,MATERIAL=GENERIC_LINEAR_HARDENING
*STEP,INC=1000
*STATIC
0.02,1,1e-08,0.05
*BOUNDARY
BASE,1,1,0.0
YSYM,2,2,0.0
ZSYM,3,3,0.0
TIP,1,1,2.500000000000
*NODE FILE
U,RF
*NODE PRINT,NSET=TIP,FREQUENCY=1
U
*NODE PRINT,NSET=BASE,TOTALS=ONLY,FREQUENCY=1
RF
*NODE PRINT,NSET=TIP,TOTALS=ONLY,FREQUENCY=1
RF
*END STEP
*STEP,INC=1000
*STATIC
0.02,1,1e-08,0.05
*BOUNDARY
BASE,1,1,0.0
YSYM,2,2,0.0
ZSYM,3,3,0.0
TIP,1,1,0.000000000000
*NODE FILE
U,RF
*NODE PRINT,NSET=TIP,FREQUENCY=1
U
*NODE PRINT,NSET=BASE,TOTALS=ONLY,FREQUENCY=1
RF
*NODE PRINT,NSET=TIP,TOTALS=ONLY,FREQUENCY=1
RF
*END STEP
*STEP,INC=1000
*STATIC
0.02,1,1e-08,0.05
*BOUNDARY
BASE,1,1,0.0
YSYM,2,2,0.0
ZSYM,3,3,0.0
TIP,1,1,-2.500000000000
*NODE FILE
U,RF
*NODE PRINT,NSET=TIP,FREQUENCY=1
U
*NODE PRINT,NSET=BASE,TOTALS=ONLY,FREQUENCY=1
RF
*NODE PRINT,NSET=TIP,TOTALS=ONLY,FREQUENCY=1
RF
*END STEP
*STEP,INC=1000
*STATIC
0.02,1,1e-08,0.05
*BOUNDARY
BASE,1,1,0.0
YSYM,2,2,0.0
ZSYM,3,3,0.0
TIP,1,1,0.000000000000
*NODE FILE
U,RF
*NODE PRINT,NSET=TIP,FREQUENCY=1
U
*NODE PRINT,NSET=BASE,TOTALS=ONLY,FREQUENCY=1
RF
*NODE PRINT,NSET=TIP,TOTALS=ONLY,FREQUENCY=1
RF
*END STEP
*STEP,INC=1000
*STATIC
0.02,1,1e-08,0.05
*BOUNDARY
BASE,1,1,0.0
YSYM,2,2,0.0
ZSYM,3,3,0.0
TIP,1,1,2.500000000000
*NODE FILE
U,RF
*NODE PRINT,NSET=TIP,FREQUENCY=1
U
*NODE PRINT,NSET=BASE,TOTALS=ONLY,FREQUENCY=1
RF
*NODE PRINT,NSET=TIP,TOTALS=ONLY,FREQUENCY=1
RF
*END STEP
