*HEADING
V10X independent cyclic plasticity C3D8 benchmark: v10x_cyclic_032
*NODE,NSET=ALL
1,0.000000000000,-5.000000000000,-5.000000000000
2,0.000000000000,-5.000000000000,0.000000000000
3,0.000000000000,-5.000000000000,5.000000000000
4,0.000000000000,0.000000000000,-5.000000000000
5,0.000000000000,0.000000000000,0.000000000000
6,0.000000000000,0.000000000000,5.000000000000
7,0.000000000000,5.000000000000,-5.000000000000
8,0.000000000000,5.000000000000,0.000000000000
9,0.000000000000,5.000000000000,5.000000000000
10,31.250000000000,-5.000000000000,-5.000000000000
11,31.250000000000,-5.000000000000,0.000000000000
12,31.250000000000,-5.000000000000,5.000000000000
13,31.250000000000,0.000000000000,-5.000000000000
14,31.250000000000,0.000000000000,0.000000000000
15,31.250000000000,0.000000000000,5.000000000000
16,31.250000000000,5.000000000000,-5.000000000000
17,31.250000000000,5.000000000000,0.000000000000
18,31.250000000000,5.000000000000,5.000000000000
19,62.500000000000,-5.000000000000,-5.000000000000
20,62.500000000000,-5.000000000000,0.000000000000
21,62.500000000000,-5.000000000000,5.000000000000
22,62.500000000000,0.000000000000,-5.000000000000
23,62.500000000000,0.000000000000,0.000000000000
24,62.500000000000,0.000000000000,5.000000000000
25,62.500000000000,5.000000000000,-5.000000000000
26,62.500000000000,5.000000000000,0.000000000000
27,62.500000000000,5.000000000000,5.000000000000
28,93.750000000000,-5.000000000000,-5.000000000000
29,93.750000000000,-5.000000000000,0.000000000000
30,93.750000000000,-5.000000000000,5.000000000000
31,93.750000000000,0.000000000000,-5.000000000000
32,93.750000000000,0.000000000000,0.000000000000
33,93.750000000000,0.000000000000,5.000000000000
34,93.750000000000,5.000000000000,-5.000000000000
35,93.750000000000,5.000000000000,0.000000000000
36,93.750000000000,5.000000000000,5.000000000000
37,125.000000000000,-5.000000000000,-5.000000000000
38,125.000000000000,-5.000000000000,0.000000000000
39,125.000000000000,-5.000000000000,5.000000000000
40,125.000000000000,0.000000000000,-5.000000000000
41,125.000000000000,0.000000000000,0.000000000000
42,125.000000000000,0.000000000000,5.000000000000
43,125.000000000000,5.000000000000,-5.000000000000
44,125.000000000000,5.000000000000,0.000000000000
45,125.000000000000,5.000000000000,5.000000000000
46,156.250000000000,-5.000000000000,-5.000000000000
47,156.250000000000,-5.000000000000,0.000000000000
48,156.250000000000,-5.000000000000,5.000000000000
49,156.250000000000,0.000000000000,-5.000000000000
50,156.250000000000,0.000000000000,0.000000000000
51,156.250000000000,0.000000000000,5.000000000000
52,156.250000000000,5.000000000000,-5.000000000000
53,156.250000000000,5.000000000000,0.000000000000
54,156.250000000000,5.000000000000,5.000000000000
55,187.500000000000,-5.000000000000,-5.000000000000
56,187.500000000000,-5.000000000000,0.000000000000
57,187.500000000000,-5.000000000000,5.000000000000
58,187.500000000000,0.000000000000,-5.000000000000
59,187.500000000000,0.000000000000,0.000000000000
60,187.500000000000,0.000000000000,5.000000000000
61,187.500000000000,5.000000000000,-5.000000000000
62,187.500000000000,5.000000000000,0.000000000000
63,187.500000000000,5.000000000000,5.000000000000
64,218.750000000000,-5.000000000000,-5.000000000000
65,218.750000000000,-5.000000000000,0.000000000000
66,218.750000000000,-5.000000000000,5.000000000000
67,218.750000000000,0.000000000000,-5.000000000000
68,218.750000000000,0.000000000000,0.000000000000
69,218.750000000000,0.000000000000,5.000000000000
70,218.750000000000,5.000000000000,-5.000000000000
71,218.750000000000,5.000000000000,0.000000000000
72,218.750000000000,5.000000000000,5.000000000000
73,250.000000000000,-5.000000000000,-5.000000000000
74,250.000000000000,-5.000000000000,0.000000000000
75,250.000000000000,-5.000000000000,5.000000000000
76,250.000000000000,0.000000000000,-5.000000000000
77,250.000000000000,0.000000000000,0.000000000000
78,250.000000000000,0.000000000000,5.000000000000
79,250.000000000000,5.000000000000,-5.000000000000
80,250.000000000000,5.000000000000,0.000000000000
81,250.000000000000,5.000000000000,5.000000000000
82,281.250000000000,-5.000000000000,-5.000000000000
83,281.250000000000,-5.000000000000,0.000000000000
84,281.250000000000,-5.000000000000,5.000000000000
85,281.250000000000,0.000000000000,-5.000000000000
86,281.250000000000,0.000000000000,0.000000000000
87,281.250000000000,0.000000000000,5.000000000000
88,281.250000000000,5.000000000000,-5.000000000000
89,281.250000000000,5.000000000000,0.000000000000
90,281.250000000000,5.000000000000,5.000000000000
91,312.500000000000,-5.000000000000,-5.000000000000
92,312.500000000000,-5.000000000000,0.000000000000
93,312.500000000000,-5.000000000000,5.000000000000
94,312.500000000000,0.000000000000,-5.000000000000
95,312.500000000000,0.000000000000,0.000000000000
96,312.500000000000,0.000000000000,5.000000000000
97,312.500000000000,5.000000000000,-5.000000000000
98,312.500000000000,5.000000000000,0.000000000000
99,312.500000000000,5.000000000000,5.000000000000
100,343.750000000000,-5.000000000000,-5.000000000000
101,343.750000000000,-5.000000000000,0.000000000000
102,343.750000000000,-5.000000000000,5.000000000000
103,343.750000000000,0.000000000000,-5.000000000000
104,343.750000000000,0.000000000000,0.000000000000
105,343.750000000000,0.000000000000,5.000000000000
106,343.750000000000,5.000000000000,-5.000000000000
107,343.750000000000,5.000000000000,0.000000000000
108,343.750000000000,5.000000000000,5.000000000000
109,375.000000000000,-5.000000000000,-5.000000000000
110,375.000000000000,-5.000000000000,0.000000000000
111,375.000000000000,-5.000000000000,5.000000000000
112,375.000000000000,0.000000000000,-5.000000000000
113,375.000000000000,0.000000000000,0.000000000000
114,375.000000000000,0.000000000000,5.000000000000
115,375.000000000000,5.000000000000,-5.000000000000
116,375.000000000000,5.000000000000,0.000000000000
117,375.000000000000,5.000000000000,5.000000000000
118,406.250000000000,-5.000000000000,-5.000000000000
119,406.250000000000,-5.000000000000,0.000000000000
120,406.250000000000,-5.000000000000,5.000000000000
121,406.250000000000,0.000000000000,-5.000000000000
122,406.250000000000,0.000000000000,0.000000000000
123,406.250000000000,0.000000000000,5.000000000000
124,406.250000000000,5.000000000000,-5.000000000000
125,406.250000000000,5.000000000000,0.000000000000
126,406.250000000000,5.000000000000,5.000000000000
127,437.500000000000,-5.000000000000,-5.000000000000
128,437.500000000000,-5.000000000000,0.000000000000
129,437.500000000000,-5.000000000000,5.000000000000
130,437.500000000000,0.000000000000,-5.000000000000
131,437.500000000000,0.000000000000,0.000000000000
132,437.500000000000,0.000000000000,5.000000000000
133,437.500000000000,5.000000000000,-5.000000000000
134,437.500000000000,5.000000000000,0.000000000000
135,437.500000000000,5.000000000000,5.000000000000
136,468.750000000000,-5.000000000000,-5.000000000000
137,468.750000000000,-5.000000000000,0.000000000000
138,468.750000000000,-5.000000000000,5.000000000000
139,468.750000000000,0.000000000000,-5.000000000000
140,468.750000000000,0.000000000000,0.000000000000
141,468.750000000000,0.000000000000,5.000000000000
142,468.750000000000,5.000000000000,-5.000000000000
143,468.750000000000,5.000000000000,0.000000000000
144,468.750000000000,5.000000000000,5.000000000000
145,500.000000000000,-5.000000000000,-5.000000000000
146,500.000000000000,-5.000000000000,0.000000000000
147,500.000000000000,-5.000000000000,5.000000000000
148,500.000000000000,0.000000000000,-5.000000000000
149,500.000000000000,0.000000000000,0.000000000000
150,500.000000000000,0.000000000000,5.000000000000
151,500.000000000000,5.000000000000,-5.000000000000
152,500.000000000000,5.000000000000,0.000000000000
153,500.000000000000,5.000000000000,5.000000000000
154,531.250000000000,-5.000000000000,-5.000000000000
155,531.250000000000,-5.000000000000,0.000000000000
156,531.250000000000,-5.000000000000,5.000000000000
157,531.250000000000,0.000000000000,-5.000000000000
158,531.250000000000,0.000000000000,0.000000000000
159,531.250000000000,0.000000000000,5.000000000000
160,531.250000000000,5.000000000000,-5.000000000000
161,531.250000000000,5.000000000000,0.000000000000
162,531.250000000000,5.000000000000,5.000000000000
163,562.500000000000,-5.000000000000,-5.000000000000
164,562.500000000000,-5.000000000000,0.000000000000
165,562.500000000000,-5.000000000000,5.000000000000
166,562.500000000000,0.000000000000,-5.000000000000
167,562.500000000000,0.000000000000,0.000000000000
168,562.500000000000,0.000000000000,5.000000000000
169,562.500000000000,5.000000000000,-5.000000000000
170,562.500000000000,5.000000000000,0.000000000000
171,562.500000000000,5.000000000000,5.000000000000
172,593.750000000000,-5.000000000000,-5.000000000000
173,593.750000000000,-5.000000000000,0.000000000000
174,593.750000000000,-5.000000000000,5.000000000000
175,593.750000000000,0.000000000000,-5.000000000000
176,593.750000000000,0.000000000000,0.000000000000
177,593.750000000000,0.000000000000,5.000000000000
178,593.750000000000,5.000000000000,-5.000000000000
179,593.750000000000,5.000000000000,0.000000000000
180,593.750000000000,5.000000000000,5.000000000000
181,625.000000000000,-5.000000000000,-5.000000000000
182,625.000000000000,-5.000000000000,0.000000000000
183,625.000000000000,-5.000000000000,5.000000000000
184,625.000000000000,0.000000000000,-5.000000000000
185,625.000000000000,0.000000000000,0.000000000000
186,625.000000000000,0.000000000000,5.000000000000
187,625.000000000000,5.000000000000,-5.000000000000
188,625.000000000000,5.000000000000,0.000000000000
189,625.000000000000,5.000000000000,5.000000000000
190,656.250000000000,-5.000000000000,-5.000000000000
191,656.250000000000,-5.000000000000,0.000000000000
192,656.250000000000,-5.000000000000,5.000000000000
193,656.250000000000,0.000000000000,-5.000000000000
194,656.250000000000,0.000000000000,0.000000000000
195,656.250000000000,0.000000000000,5.000000000000
196,656.250000000000,5.000000000000,-5.000000000000
197,656.250000000000,5.000000000000,0.000000000000
198,656.250000000000,5.000000000000,5.000000000000
199,687.500000000000,-5.000000000000,-5.000000000000
200,687.500000000000,-5.000000000000,0.000000000000
201,687.500000000000,-5.000000000000,5.000000000000
202,687.500000000000,0.000000000000,-5.000000000000
203,687.500000000000,0.000000000000,0.000000000000
204,687.500000000000,0.000000000000,5.000000000000
205,687.500000000000,5.000000000000,-5.000000000000
206,687.500000000000,5.000000000000,0.000000000000
207,687.500000000000,5.000000000000,5.000000000000
208,718.750000000000,-5.000000000000,-5.000000000000
209,718.750000000000,-5.000000000000,0.000000000000
210,718.750000000000,-5.000000000000,5.000000000000
211,718.750000000000,0.000000000000,-5.000000000000
212,718.750000000000,0.000000000000,0.000000000000
213,718.750000000000,0.000000000000,5.000000000000
214,718.750000000000,5.000000000000,-5.000000000000
215,718.750000000000,5.000000000000,0.000000000000
216,718.750000000000,5.000000000000,5.000000000000
217,750.000000000000,-5.000000000000,-5.000000000000
218,750.000000000000,-5.000000000000,0.000000000000
219,750.000000000000,-5.000000000000,5.000000000000
220,750.000000000000,0.000000000000,-5.000000000000
221,750.000000000000,0.000000000000,0.000000000000
222,750.000000000000,0.000000000000,5.000000000000
223,750.000000000000,5.000000000000,-5.000000000000
224,750.000000000000,5.000000000000,0.000000000000
225,750.000000000000,5.000000000000,5.000000000000
226,781.250000000000,-5.000000000000,-5.000000000000
227,781.250000000000,-5.000000000000,0.000000000000
228,781.250000000000,-5.000000000000,5.000000000000
229,781.250000000000,0.000000000000,-5.000000000000
230,781.250000000000,0.000000000000,0.000000000000
231,781.250000000000,0.000000000000,5.000000000000
232,781.250000000000,5.000000000000,-5.000000000000
233,781.250000000000,5.000000000000,0.000000000000
234,781.250000000000,5.000000000000,5.000000000000
235,812.500000000000,-5.000000000000,-5.000000000000
236,812.500000000000,-5.000000000000,0.000000000000
237,812.500000000000,-5.000000000000,5.000000000000
238,812.500000000000,0.000000000000,-5.000000000000
239,812.500000000000,0.000000000000,0.000000000000
240,812.500000000000,0.000000000000,5.000000000000
241,812.500000000000,5.000000000000,-5.000000000000
242,812.500000000000,5.000000000000,0.000000000000
243,812.500000000000,5.000000000000,5.000000000000
244,843.750000000000,-5.000000000000,-5.000000000000
245,843.750000000000,-5.000000000000,0.000000000000
246,843.750000000000,-5.000000000000,5.000000000000
247,843.750000000000,0.000000000000,-5.000000000000
248,843.750000000000,0.000000000000,0.000000000000
249,843.750000000000,0.000000000000,5.000000000000
250,843.750000000000,5.000000000000,-5.000000000000
251,843.750000000000,5.000000000000,0.000000000000
252,843.750000000000,5.000000000000,5.000000000000
253,875.000000000000,-5.000000000000,-5.000000000000
254,875.000000000000,-5.000000000000,0.000000000000
255,875.000000000000,-5.000000000000,5.000000000000
256,875.000000000000,0.000000000000,-5.000000000000
257,875.000000000000,0.000000000000,0.000000000000
258,875.000000000000,0.000000000000,5.000000000000
259,875.000000000000,5.000000000000,-5.000000000000
260,875.000000000000,5.000000000000,0.000000000000
261,875.000000000000,5.000000000000,5.000000000000
262,906.250000000000,-5.000000000000,-5.000000000000
263,906.250000000000,-5.000000000000,0.000000000000
264,906.250000000000,-5.000000000000,5.000000000000
265,906.250000000000,0.000000000000,-5.000000000000
266,906.250000000000,0.000000000000,0.000000000000
267,906.250000000000,0.000000000000,5.000000000000
268,906.250000000000,5.000000000000,-5.000000000000
269,906.250000000000,5.000000000000,0.000000000000
270,906.250000000000,5.000000000000,5.000000000000
271,937.500000000000,-5.000000000000,-5.000000000000
272,937.500000000000,-5.000000000000,0.000000000000
273,937.500000000000,-5.000000000000,5.000000000000
274,937.500000000000,0.000000000000,-5.000000000000
275,937.500000000000,0.000000000000,0.000000000000
276,937.500000000000,0.000000000000,5.000000000000
277,937.500000000000,5.000000000000,-5.000000000000
278,937.500000000000,5.000000000000,0.000000000000
279,937.500000000000,5.000000000000,5.000000000000
280,968.750000000000,-5.000000000000,-5.000000000000
281,968.750000000000,-5.000000000000,0.000000000000
282,968.750000000000,-5.000000000000,5.000000000000
283,968.750000000000,0.000000000000,-5.000000000000
284,968.750000000000,0.000000000000,0.000000000000
285,968.750000000000,0.000000000000,5.000000000000
286,968.750000000000,5.000000000000,-5.000000000000
287,968.750000000000,5.000000000000,0.000000000000
288,968.750000000000,5.000000000000,5.000000000000
289,1000.000000000000,-5.000000000000,-5.000000000000
290,1000.000000000000,-5.000000000000,0.000000000000
291,1000.000000000000,-5.000000000000,5.000000000000
292,1000.000000000000,0.000000000000,-5.000000000000
293,1000.000000000000,0.000000000000,0.000000000000
294,1000.000000000000,0.000000000000,5.000000000000
295,1000.000000000000,5.000000000000,-5.000000000000
296,1000.000000000000,5.000000000000,0.000000000000
297,1000.000000000000,5.000000000000,5.000000000000
*ELEMENT,TYPE=C3D8,ELSET=BAR
1,1,10,13,4,2,11,14,5
2,2,11,14,5,3,12,15,6
3,4,13,16,7,5,14,17,8
4,5,14,17,8,6,15,18,9
5,10,19,22,13,11,20,23,14
6,11,20,23,14,12,21,24,15
7,13,22,25,16,14,23,26,17
8,14,23,26,17,15,24,27,18
9,19,28,31,22,20,29,32,23
10,20,29,32,23,21,30,33,24
11,22,31,34,25,23,32,35,26
12,23,32,35,26,24,33,36,27
13,28,37,40,31,29,38,41,32
14,29,38,41,32,30,39,42,33
15,31,40,43,34,32,41,44,35
16,32,41,44,35,33,42,45,36
17,37,46,49,40,38,47,50,41
18,38,47,50,41,39,48,51,42
19,40,49,52,43,41,50,53,44
20,41,50,53,44,42,51,54,45
21,46,55,58,49,47,56,59,50
22,47,56,59,50,48,57,60,51
23,49,58,61,52,50,59,62,53
24,50,59,62,53,51,60,63,54
25,55,64,67,58,56,65,68,59
26,56,65,68,59,57,66,69,60
27,58,67,70,61,59,68,71,62
28,59,68,71,62,60,69,72,63
29,64,73,76,67,65,74,77,68
30,65,74,77,68,66,75,78,69
31,67,76,79,70,68,77,80,71
32,68,77,80,71,69,78,81,72
33,73,82,85,76,74,83,86,77
34,74,83,86,77,75,84,87,78
35,76,85,88,79,77,86,89,80
36,77,86,89,80,78,87,90,81
37,82,91,94,85,83,92,95,86
38,83,92,95,86,84,93,96,87
39,85,94,97,88,86,95,98,89
40,86,95,98,89,87,96,99,90
41,91,100,103,94,92,101,104,95
42,92,101,104,95,93,102,105,96
43,94,103,106,97,95,104,107,98
44,95,104,107,98,96,105,108,99
45,100,109,112,103,101,110,113,104
46,101,110,113,104,102,111,114,105
47,103,112,115,106,104,113,116,107
48,104,113,116,107,105,114,117,108
49,109,118,121,112,110,119,122,113
50,110,119,122,113,111,120,123,114
51,112,121,124,115,113,122,125,116
52,113,122,125,116,114,123,126,117
53,118,127,130,121,119,128,131,122
54,119,128,131,122,120,129,132,123
55,121,130,133,124,122,131,134,125
56,122,131,134,125,123,132,135,126
57,127,136,139,130,128,137,140,131
58,128,137,140,131,129,138,141,132
59,130,139,142,133,131,140,143,134
60,131,140,143,134,132,141,144,135
61,136,145,148,139,137,146,149,140
62,137,146,149,140,138,147,150,141
63,139,148,151,142,140,149,152,143
64,140,149,152,143,141,150,153,144
65,145,154,157,148,146,155,158,149
66,146,155,158,149,147,156,159,150
67,148,157,160,151,149,158,161,152
68,149,158,161,152,150,159,162,153
69,154,163,166,157,155,164,167,158
70,155,164,167,158,156,165,168,159
71,157,166,169,160,158,167,170,161
72,158,167,170,161,159,168,171,162
73,163,172,175,166,164,173,176,167
74,164,173,176,167,165,174,177,168
75,166,175,178,169,167,176,179,170
76,167,176,179,170,168,177,180,171
77,172,181,184,175,173,182,185,176
78,173,182,185,176,174,183,186,177
79,175,184,187,178,176,185,188,179
80,176,185,188,179,177,186,189,180
81,181,190,193,184,182,191,194,185
82,182,191,194,185,183,192,195,186
83,184,193,196,187,185,194,197,188
84,185,194,197,188,186,195,198,189
85,190,199,202,193,191,200,203,194
86,191,200,203,194,192,201,204,195
87,193,202,205,196,194,203,206,197
88,194,203,206,197,195,204,207,198
89,199,208,211,202,200,209,212,203
90,200,209,212,203,201,210,213,204
91,202,211,214,205,203,212,215,206
92,203,212,215,206,204,213,216,207
93,208,217,220,211,209,218,221,212
94,209,218,221,212,210,219,222,213
95,211,220,223,214,212,221,224,215
96,212,221,224,215,213,222,225,216
97,217,226,229,220,218,227,230,221
98,218,227,230,221,219,228,231,222
99,220,229,232,223,221,230,233,224
100,221,230,233,224,222,231,234,225
101,226,235,238,229,227,236,239,230
102,227,236,239,230,228,237,240,231
103,229,238,241,232,230,239,242,233
104,230,239,242,233,231,240,243,234
105,235,244,247,238,236,245,248,239
106,236,245,248,239,237,246,249,240
107,238,247,250,241,239,248,251,242
108,239,248,251,242,240,249,252,243
109,244,253,256,247,245,254,257,248
110,245,254,257,248,246,255,258,249
111,247,256,259,250,248,257,260,251
112,248,257,260,251,249,258,261,252
113,253,262,265,256,254,263,266,257
114,254,263,266,257,255,264,267,258
115,256,265,268,259,257,266,269,260
116,257,266,269,260,258,267,270,261
117,262,271,274,265,263,272,275,266
118,263,272,275,266,264,273,276,267
119,265,274,277,268,266,275,278,269
120,266,275,278,269,267,276,279,270
121,271,280,283,274,272,281,284,275
122,272,281,284,275,273,282,285,276
123,274,283,286,277,275,284,287,278
124,275,284,287,278,276,285,288,279
125,280,289,292,283,281,290,293,284
126,281,290,293,284,282,291,294,285
127,283,292,295,286,284,293,296,287
128,284,293,296,287,285,294,297,288
*NSET,NSET=BASE
1,2,3,4,5,6,7,8,9
*NSET,NSET=TIP
289,290,291,292,293,294,295,296,297
*NSET,NSET=YSYM
4,5,6,13,14,15,22,23,24,31,32,33,40,41,42,49
50,51,58,59,60,67,68,69,76,77,78,85,86,87,94,95
96,103,104,105,112,113,114,121,122,123,130,131,132,139,140,141
148,149,150,157,158,159,166,167,168,175,176,177,184,185,186,193
194,195,202,203,204,211,212,213,220,221,222,229,230,231,238,239
240,247,248,249,256,257,258,265,266,267,274,275,276,283,284,285
292,293,294
*NSET,NSET=ZSYM
2,5,8,11,14,17,20,23,26,29,32,35,38,41,44,47
50,53,56,59,62,65,68,71,74,77,80,83,86,89,92,95
98,101,104,107,110,113,116,119,122,125,128,131,134,137,140,143
146,149,152,155,158,161,164,167,170,173,176,179,182,185,188,191
194,197,200,203,206,209,212,215,218,221,224,227,230,233,236,239
242,245,248,251,254,257,260,263,266,269,272,275,278,281,284,287
290,293,296
*MATERIAL,NAME=GENERIC_LINEAR_HARDENING
*ELASTIC
200000.000000000000,0.300000000000
*PLASTIC
250.000000000000,0.000000000000
275.000000000000,0.025000000000
*SOLID SECTION,ELSET=BAR,MATERIAL=GENERIC_LINEAR_HARDENING
*STEP,INC=1000
*STATIC
0.02,1,1e-08,0.05
*BOUNDARY
BASE,1,1,0.0
YSYM,2,2,0.0
ZSYM,3,3,0.0
TIP,1,1,2.500000000000
*NODE FILE
U,RF
*NODE PRINT,NSET=TIP,FREQUENCY=1
U
*NODE PRINT,NSET=BASE,TOTALS=ONLY,FREQUENCY=1
RF
*NODE PRINT,NSET=TIP,TOTALS=ONLY,FREQUENCY=1
RF
*END STEP
*STEP,INC=1000
*STATIC
0.02,1,1e-08,0.05
*BOUNDARY
BASE,1,1,0.0
YSYM,2,2,0.0
ZSYM,3,3,0.0
TIP,1,1,0.000000000000
*NODE FILE
U,RF
*NODE PRINT,NSET=TIP,FREQUENCY=1
U
*NODE PRINT,NSET=BASE,TOTALS=ONLY,FREQUENCY=1
RF
*NODE PRINT,NSET=TIP,TOTALS=ONLY,FREQUENCY=1
RF
*END STEP
*STEP,INC=1000
*STATIC
0.02,1,1e-08,0.05
*BOUNDARY
BASE,1,1,0.0
YSYM,2,2,0.0
ZSYM,3,3,0.0
TIP,1,1,-2.500000000000
*NODE FILE
U,RF
*NODE PRINT,NSET=TIP,FREQUENCY=1
U
*NODE PRINT,NSET=BASE,TOTALS=ONLY,FREQUENCY=1
RF
*NODE PRINT,NSET=TIP,TOTALS=ONLY,FREQUENCY=1
RF
*END STEP
*STEP,INC=1000
*STATIC
0.02,1,1e-08,0.05
*BOUNDARY
BASE,1,1,0.0
YSYM,2,2,0.0
ZSYM,3,3,0.0
TIP,1,1,0.000000000000
*NODE FILE
U,RF
*NODE PRINT,NSET=TIP,FREQUENCY=1
U
*NODE PRINT,NSET=BASE,TOTALS=ONLY,FREQUENCY=1
RF
*NODE PRINT,NSET=TIP,TOTALS=ONLY,FREQUENCY=1
RF
*END STEP
*STEP,INC=1000
*STATIC
0.02,1,1e-08,0.05
*BOUNDARY
BASE,1,1,0.0
YSYM,2,2,0.0
ZSYM,3,3,0.0
TIP,1,1,2.500000000000
*NODE FILE
U,RF
*NODE PRINT,NSET=TIP,FREQUENCY=1
U
*NODE PRINT,NSET=BASE,TOTALS=ONLY,FREQUENCY=1
RF
*NODE PRINT,NSET=TIP,TOTALS=ONLY,FREQUENCY=1
RF
*END STEP
