*HEADING
V10W independent prescribed-temperature T3D2 benchmark: v10w_uniform_restrained_032
*NODE,NSET=ALL
1,0.000000000000,0.0,0.0
2,31.250000000000,0.0,0.0
3,62.500000000000,0.0,0.0
4,93.750000000000,0.0,0.0
5,125.000000000000,0.0,0.0
6,156.250000000000,0.0,0.0
7,187.500000000000,0.0,0.0
8,218.750000000000,0.0,0.0
9,250.000000000000,0.0,0.0
10,281.250000000000,0.0,0.0
11,312.500000000000,0.0,0.0
12,343.750000000000,0.0,0.0
13,375.000000000000,0.0,0.0
14,406.250000000000,0.0,0.0
15,437.500000000000,0.0,0.0
16,468.750000000000,0.0,0.0
17,500.000000000000,0.0,0.0
18,531.250000000000,0.0,0.0
19,562.500000000000,0.0,0.0
20,593.750000000000,0.0,0.0
21,625.000000000000,0.0,0.0
22,656.250000000000,0.0,0.0
23,687.500000000000,0.0,0.0
24,718.750000000000,0.0,0.0
25,750.000000000000,0.0,0.0
26,781.250000000000,0.0,0.0
27,812.500000000000,0.0,0.0
28,843.750000000000,0.0,0.0
29,875.000000000000,0.0,0.0
30,906.250000000000,0.0,0.0
31,937.500000000000,0.0,0.0
32,968.750000000000,0.0,0.0
33,1000.000000000000,0.0,0.0
*ELEMENT,TYPE=T3D2,ELSET=BAR
1,1,2
2,2,3
3,3,4
4,4,5
5,5,6
6,6,7
7,7,8
8,8,9
9,9,10
10,10,11
11,11,12
12,12,13
13,13,14
14,14,15
15,15,16
16,16,17
17,17,18
18,18,19
19,19,20
20,20,21
21,21,22
22,22,23
23,23,24
24,24,25
25,25,26
26,26,27
27,27,28
28,28,29
29,29,30
30,30,31
31,31,32
32,32,33
*NSET,NSET=BASE
1
*NSET,NSET=TIP
33
*MATERIAL,NAME=GENERIC_THERMOELASTIC
*ELASTIC
200000.000000000000,0.300000000000
*EXPANSION,ZERO=0.000000000000
1.2e-05
*SOLID SECTION,ELSET=BAR,MATERIAL=GENERIC_THERMOELASTIC
100.000000000000
*INITIAL CONDITIONS,TYPE=TEMPERATURE
ALL,0.000000000000
*STEP
*STATIC
*BOUNDARY
ALL,2,3
BASE,1,1
TIP,1,1
*TEMPERATURE,OP=NEW
1,100.000000000000
2,100.000000000000
3,100.000000000000
4,100.000000000000
5,100.000000000000
6,100.000000000000
7,100.000000000000
8,100.000000000000
9,100.000000000000
10,100.000000000000
11,100.000000000000
12,100.000000000000
13,100.000000000000
14,100.000000000000
15,100.000000000000
16,100.000000000000
17,100.000000000000
18,100.000000000000
19,100.000000000000
20,100.000000000000
21,100.000000000000
22,100.000000000000
23,100.000000000000
24,100.000000000000
25,100.000000000000
26,100.000000000000
27,100.000000000000
28,100.000000000000
29,100.000000000000
30,100.000000000000
31,100.000000000000
32,100.000000000000
33,100.000000000000
*NODE FILE
U,RF
*EL FILE
S,E
*NODE PRINT,NSET=TIP,FREQUENCY=1
U
*NODE PRINT,NSET=BASE,TOTALS=ONLY,FREQUENCY=1
RF
*NODE PRINT,NSET=TIP,TOTALS=ONLY,FREQUENCY=1
RF
*END STEP
