*HEADING
V10W independent prescribed-temperature T3D2 benchmark: v10w_axial_linear_gradient_free_001
*NODE,NSET=ALL
1,0.000000000000,0.0,0.0
2,1000.000000000000,0.0,0.0
*ELEMENT,TYPE=T3D2,ELSET=BAR
1,1,2
*NSET,NSET=BASE
1
*NSET,NSET=TIP
2
*MATERIAL,NAME=GENERIC_THERMOELASTIC
*ELASTIC
200000.000000000000,0.300000000000
*EXPANSION,ZERO=0.000000000000
1.2e-05
*SOLID SECTION,ELSET=BAR,MATERIAL=GENERIC_THERMOELASTIC
100.000000000000
*INITIAL CONDITIONS,TYPE=TEMPERATURE
ALL,0.000000000000
*STEP
*STATIC
*BOUNDARY
ALL,2,3
BASE,1,1
*TEMPERATURE,OP=NEW
1,0.000000000000
2,100.000000000000
*NODE FILE
U,RF
*EL FILE
S,E
*NODE PRINT,NSET=TIP,FREQUENCY=1
U
*NODE PRINT,NSET=BASE,TOTALS=ONLY,FREQUENCY=1
RF
*NODE PRINT,NSET=TIP,TOTALS=ONLY,FREQUENCY=1
RF
*END STEP
