*HEADING
V10W independent prescribed-temperature T3D2 benchmark: v10w_axial_linear_gradient_free_008
*NODE,NSET=ALL
1,0.000000000000,0.0,0.0
2,125.000000000000,0.0,0.0
3,250.000000000000,0.0,0.0
4,375.000000000000,0.0,0.0
5,500.000000000000,0.0,0.0
6,625.000000000000,0.0,0.0
7,750.000000000000,0.0,0.0
8,875.000000000000,0.0,0.0
9,1000.000000000000,0.0,0.0
*ELEMENT,TYPE=T3D2,ELSET=BAR
1,1,2
2,2,3
3,3,4
4,4,5
5,5,6
6,6,7
7,7,8
8,8,9
*NSET,NSET=BASE
1
*NSET,NSET=TIP
9
*MATERIAL,NAME=GENERIC_THERMOELASTIC
*ELASTIC
200000.000000000000,0.300000000000
*EXPANSION,ZERO=0.000000000000
1.2e-05
*SOLID SECTION,ELSET=BAR,MATERIAL=GENERIC_THERMOELASTIC
100.000000000000
*INITIAL CONDITIONS,TYPE=TEMPERATURE
ALL,0.000000000000
*STEP
*STATIC
*BOUNDARY
ALL,2,3
BASE,1,1
*TEMPERATURE,OP=NEW
1,0.000000000000
2,12.500000000000
3,25.000000000000
4,37.500000000000
5,50.000000000000
6,62.500000000000
7,75.000000000000
8,87.500000000000
9,100.000000000000
*NODE FILE
U,RF
*EL FILE
S,E
*NODE PRINT,NSET=TIP,FREQUENCY=1
U
*NODE PRINT,NSET=BASE,TOTALS=ONLY,FREQUENCY=1
RF
*NODE PRINT,NSET=TIP,TOTALS=ONLY,FREQUENCY=1
RF
*END STEP
