*HEADING
V10U independent linear B32R cantilever benchmark: v10u_mesh_128
*NODE,NSET=ALL
1,0.000000000000,0.0,0.0
2,7.812500000000,0.0,0.0
3,15.625000000000,0.0,0.0
4,23.437500000000,0.0,0.0
5,31.250000000000,0.0,0.0
6,39.062500000000,0.0,0.0
7,46.875000000000,0.0,0.0
8,54.687500000000,0.0,0.0
9,62.500000000000,0.0,0.0
10,70.312500000000,0.0,0.0
11,78.125000000000,0.0,0.0
12,85.937500000000,0.0,0.0
13,93.750000000000,0.0,0.0
14,101.562500000000,0.0,0.0
15,109.375000000000,0.0,0.0
16,117.187500000000,0.0,0.0
17,125.000000000000,0.0,0.0
18,132.812500000000,0.0,0.0
19,140.625000000000,0.0,0.0
20,148.437500000000,0.0,0.0
21,156.250000000000,0.0,0.0
22,164.062500000000,0.0,0.0
23,171.875000000000,0.0,0.0
24,179.687500000000,0.0,0.0
25,187.500000000000,0.0,0.0
26,195.312500000000,0.0,0.0
27,203.125000000000,0.0,0.0
28,210.937500000000,0.0,0.0
29,218.750000000000,0.0,0.0
30,226.562500000000,0.0,0.0
31,234.375000000000,0.0,0.0
32,242.187500000000,0.0,0.0
33,250.000000000000,0.0,0.0
34,257.812500000000,0.0,0.0
35,265.625000000000,0.0,0.0
36,273.437500000000,0.0,0.0
37,281.250000000000,0.0,0.0
38,289.062500000000,0.0,0.0
39,296.875000000000,0.0,0.0
40,304.687500000000,0.0,0.0
41,312.500000000000,0.0,0.0
42,320.312500000000,0.0,0.0
43,328.125000000000,0.0,0.0
44,335.937500000000,0.0,0.0
45,343.750000000000,0.0,0.0
46,351.562500000000,0.0,0.0
47,359.375000000000,0.0,0.0
48,367.187500000000,0.0,0.0
49,375.000000000000,0.0,0.0
50,382.812500000000,0.0,0.0
51,390.625000000000,0.0,0.0
52,398.437500000000,0.0,0.0
53,406.250000000000,0.0,0.0
54,414.062500000000,0.0,0.0
55,421.875000000000,0.0,0.0
56,429.687500000000,0.0,0.0
57,437.500000000000,0.0,0.0
58,445.312500000000,0.0,0.0
59,453.125000000000,0.0,0.0
60,460.937500000000,0.0,0.0
61,468.750000000000,0.0,0.0
62,476.562500000000,0.0,0.0
63,484.375000000000,0.0,0.0
64,492.187500000000,0.0,0.0
65,500.000000000000,0.0,0.0
66,507.812500000000,0.0,0.0
67,515.625000000000,0.0,0.0
68,523.437500000000,0.0,0.0
69,531.250000000000,0.0,0.0
70,539.062500000000,0.0,0.0
71,546.875000000000,0.0,0.0
72,554.687500000000,0.0,0.0
73,562.500000000000,0.0,0.0
74,570.312500000000,0.0,0.0
75,578.125000000000,0.0,0.0
76,585.937500000000,0.0,0.0
77,593.750000000000,0.0,0.0
78,601.562500000000,0.0,0.0
79,609.375000000000,0.0,0.0
80,617.187500000000,0.0,0.0
81,625.000000000000,0.0,0.0
82,632.812500000000,0.0,0.0
83,640.625000000000,0.0,0.0
84,648.437500000000,0.0,0.0
85,656.250000000000,0.0,0.0
86,664.062500000000,0.0,0.0
87,671.875000000000,0.0,0.0
88,679.687500000000,0.0,0.0
89,687.500000000000,0.0,0.0
90,695.312500000000,0.0,0.0
91,703.125000000000,0.0,0.0
92,710.937500000000,0.0,0.0
93,718.750000000000,0.0,0.0
94,726.562500000000,0.0,0.0
95,734.375000000000,0.0,0.0
96,742.187500000000,0.0,0.0
97,750.000000000000,0.0,0.0
98,757.812500000000,0.0,0.0
99,765.625000000000,0.0,0.0
100,773.437500000000,0.0,0.0
101,781.250000000000,0.0,0.0
102,789.062500000000,0.0,0.0
103,796.875000000000,0.0,0.0
104,804.687500000000,0.0,0.0
105,812.500000000000,0.0,0.0
106,820.312500000000,0.0,0.0
107,828.125000000000,0.0,0.0
108,835.937500000000,0.0,0.0
109,843.750000000000,0.0,0.0
110,851.562500000000,0.0,0.0
111,859.375000000000,0.0,0.0
112,867.187500000000,0.0,0.0
113,875.000000000000,0.0,0.0
114,882.812500000000,0.0,0.0
115,890.625000000000,0.0,0.0
116,898.437500000000,0.0,0.0
117,906.250000000000,0.0,0.0
118,914.062500000000,0.0,0.0
119,921.875000000000,0.0,0.0
120,929.687500000000,0.0,0.0
121,937.500000000000,0.0,0.0
122,945.312500000000,0.0,0.0
123,953.125000000000,0.0,0.0
124,960.937500000000,0.0,0.0
125,968.750000000000,0.0,0.0
126,976.562500000000,0.0,0.0
127,984.375000000000,0.0,0.0
128,992.187500000000,0.0,0.0
129,1000.000000000000,0.0,0.0
130,1007.812500000000,0.0,0.0
131,1015.625000000000,0.0,0.0
132,1023.437500000000,0.0,0.0
133,1031.250000000000,0.0,0.0
134,1039.062500000000,0.0,0.0
135,1046.875000000000,0.0,0.0
136,1054.687500000000,0.0,0.0
137,1062.500000000000,0.0,0.0
138,1070.312500000000,0.0,0.0
139,1078.125000000000,0.0,0.0
140,1085.937500000000,0.0,0.0
141,1093.750000000000,0.0,0.0
142,1101.562500000000,0.0,0.0
143,1109.375000000000,0.0,0.0
144,1117.187500000000,0.0,0.0
145,1125.000000000000,0.0,0.0
146,1132.812500000000,0.0,0.0
147,1140.625000000000,0.0,0.0
148,1148.437500000000,0.0,0.0
149,1156.250000000000,0.0,0.0
150,1164.062500000000,0.0,0.0
151,1171.875000000000,0.0,0.0
152,1179.687500000000,0.0,0.0
153,1187.500000000000,0.0,0.0
154,1195.312500000000,0.0,0.0
155,1203.125000000000,0.0,0.0
156,1210.937500000000,0.0,0.0
157,1218.750000000000,0.0,0.0
158,1226.562500000000,0.0,0.0
159,1234.375000000000,0.0,0.0
160,1242.187500000000,0.0,0.0
161,1250.000000000000,0.0,0.0
162,1257.812500000000,0.0,0.0
163,1265.625000000000,0.0,0.0
164,1273.437500000000,0.0,0.0
165,1281.250000000000,0.0,0.0
166,1289.062500000000,0.0,0.0
167,1296.875000000000,0.0,0.0
168,1304.687500000000,0.0,0.0
169,1312.500000000000,0.0,0.0
170,1320.312500000000,0.0,0.0
171,1328.125000000000,0.0,0.0
172,1335.937500000000,0.0,0.0
173,1343.750000000000,0.0,0.0
174,1351.562500000000,0.0,0.0
175,1359.375000000000,0.0,0.0
176,1367.187500000000,0.0,0.0
177,1375.000000000000,0.0,0.0
178,1382.812500000000,0.0,0.0
179,1390.625000000000,0.0,0.0
180,1398.437500000000,0.0,0.0
181,1406.250000000000,0.0,0.0
182,1414.062500000000,0.0,0.0
183,1421.875000000000,0.0,0.0
184,1429.687500000000,0.0,0.0
185,1437.500000000000,0.0,0.0
186,1445.312500000000,0.0,0.0
187,1453.125000000000,0.0,0.0
188,1460.937500000000,0.0,0.0
189,1468.750000000000,0.0,0.0
190,1476.562500000000,0.0,0.0
191,1484.375000000000,0.0,0.0
192,1492.187500000000,0.0,0.0
193,1500.000000000000,0.0,0.0
194,1507.812500000000,0.0,0.0
195,1515.625000000000,0.0,0.0
196,1523.437500000000,0.0,0.0
197,1531.250000000000,0.0,0.0
198,1539.062500000000,0.0,0.0
199,1546.875000000000,0.0,0.0
200,1554.687500000000,0.0,0.0
201,1562.500000000000,0.0,0.0
202,1570.312500000000,0.0,0.0
203,1578.125000000000,0.0,0.0
204,1585.937500000000,0.0,0.0
205,1593.750000000000,0.0,0.0
206,1601.562500000000,0.0,0.0
207,1609.375000000000,0.0,0.0
208,1617.187500000000,0.0,0.0
209,1625.000000000000,0.0,0.0
210,1632.812500000000,0.0,0.0
211,1640.625000000000,0.0,0.0
212,1648.437500000000,0.0,0.0
213,1656.250000000000,0.0,0.0
214,1664.062500000000,0.0,0.0
215,1671.875000000000,0.0,0.0
216,1679.687500000000,0.0,0.0
217,1687.500000000000,0.0,0.0
218,1695.312500000000,0.0,0.0
219,1703.125000000000,0.0,0.0
220,1710.937500000000,0.0,0.0
221,1718.750000000000,0.0,0.0
222,1726.562500000000,0.0,0.0
223,1734.375000000000,0.0,0.0
224,1742.187500000000,0.0,0.0
225,1750.000000000000,0.0,0.0
226,1757.812500000000,0.0,0.0
227,1765.625000000000,0.0,0.0
228,1773.437500000000,0.0,0.0
229,1781.250000000000,0.0,0.0
230,1789.062500000000,0.0,0.0
231,1796.875000000000,0.0,0.0
232,1804.687500000000,0.0,0.0
233,1812.500000000000,0.0,0.0
234,1820.312500000000,0.0,0.0
235,1828.125000000000,0.0,0.0
236,1835.937500000000,0.0,0.0
237,1843.750000000000,0.0,0.0
238,1851.562500000000,0.0,0.0
239,1859.375000000000,0.0,0.0
240,1867.187500000000,0.0,0.0
241,1875.000000000000,0.0,0.0
242,1882.812500000000,0.0,0.0
243,1890.625000000000,0.0,0.0
244,1898.437500000000,0.0,0.0
245,1906.250000000000,0.0,0.0
246,1914.062500000000,0.0,0.0
247,1921.875000000000,0.0,0.0
248,1929.687500000000,0.0,0.0
249,1937.500000000000,0.0,0.0
250,1945.312500000000,0.0,0.0
251,1953.125000000000,0.0,0.0
252,1960.937500000000,0.0,0.0
253,1968.750000000000,0.0,0.0
254,1976.562500000000,0.0,0.0
255,1984.375000000000,0.0,0.0
256,1992.187500000000,0.0,0.0
257,2000.000000000000,0.0,0.0
*ELEMENT,TYPE=B32R,ELSET=BEAM
1,1,2,3
2,3,4,5
3,5,6,7
4,7,8,9
5,9,10,11
6,11,12,13
7,13,14,15
8,15,16,17
9,17,18,19
10,19,20,21
11,21,22,23
12,23,24,25
13,25,26,27
14,27,28,29
15,29,30,31
16,31,32,33
17,33,34,35
18,35,36,37
19,37,38,39
20,39,40,41
21,41,42,43
22,43,44,45
23,45,46,47
24,47,48,49
25,49,50,51
26,51,52,53
27,53,54,55
28,55,56,57
29,57,58,59
30,59,60,61
31,61,62,63
32,63,64,65
33,65,66,67
34,67,68,69
35,69,70,71
36,71,72,73
37,73,74,75
38,75,76,77
39,77,78,79
40,79,80,81
41,81,82,83
42,83,84,85
43,85,86,87
44,87,88,89
45,89,90,91
46,91,92,93
47,93,94,95
48,95,96,97
49,97,98,99
50,99,100,101
51,101,102,103
52,103,104,105
53,105,106,107
54,107,108,109
55,109,110,111
56,111,112,113
57,113,114,115
58,115,116,117
59,117,118,119
60,119,120,121
61,121,122,123
62,123,124,125
63,125,126,127
64,127,128,129
65,129,130,131
66,131,132,133
67,133,134,135
68,135,136,137
69,137,138,139
70,139,140,141
71,141,142,143
72,143,144,145
73,145,146,147
74,147,148,149
75,149,150,151
76,151,152,153
77,153,154,155
78,155,156,157
79,157,158,159
80,159,160,161
81,161,162,163
82,163,164,165
83,165,166,167
84,167,168,169
85,169,170,171
86,171,172,173
87,173,174,175
88,175,176,177
89,177,178,179
90,179,180,181
91,181,182,183
92,183,184,185
93,185,186,187
94,187,188,189
95,189,190,191
96,191,192,193
97,193,194,195
98,195,196,197
99,197,198,199
100,199,200,201
101,201,202,203
102,203,204,205
103,205,206,207
104,207,208,209
105,209,210,211
106,211,212,213
107,213,214,215
108,215,216,217
109,217,218,219
110,219,220,221
111,221,222,223
112,223,224,225
113,225,226,227
114,227,228,229
115,229,230,231
116,231,232,233
117,233,234,235
118,235,236,237
119,237,238,239
120,239,240,241
121,241,242,243
122,243,244,245
123,245,246,247
124,247,248,249
125,249,250,251
126,251,252,253
127,253,254,255
128,255,256,257
*NSET,NSET=FIXED
1
*NSET,NSET=TIP
257
*MATERIAL,NAME=GENERIC_LINEAR_ELASTIC
*ELASTIC
200000.000000000000,0.300000000000
*BEAM SECTION,ELSET=BEAM,MATERIAL=GENERIC_LINEAR_ELASTIC,SECTION=RECT
100.000000000000,100.000000000000
0.0,1.0,0.0
*STEP
*STATIC
*BOUNDARY
FIXED,1,6
*CLOAD
TIP,3,-10000.000000000000
*NODE FILE
U,RF
*EL FILE
S,E
*NODE PRINT,NSET=TIP,FREQUENCY=1
U
*NODE PRINT,NSET=FIXED,TOTALS=ONLY,FREQUENCY=1
RF
*END STEP
