*HEADING
V10U independent linear B32R cantilever benchmark: v10u_mesh_032
*NODE,NSET=ALL
1,0.000000000000,0.0,0.0
2,31.250000000000,0.0,0.0
3,62.500000000000,0.0,0.0
4,93.750000000000,0.0,0.0
5,125.000000000000,0.0,0.0
6,156.250000000000,0.0,0.0
7,187.500000000000,0.0,0.0
8,218.750000000000,0.0,0.0
9,250.000000000000,0.0,0.0
10,281.250000000000,0.0,0.0
11,312.500000000000,0.0,0.0
12,343.750000000000,0.0,0.0
13,375.000000000000,0.0,0.0
14,406.250000000000,0.0,0.0
15,437.500000000000,0.0,0.0
16,468.750000000000,0.0,0.0
17,500.000000000000,0.0,0.0
18,531.250000000000,0.0,0.0
19,562.500000000000,0.0,0.0
20,593.750000000000,0.0,0.0
21,625.000000000000,0.0,0.0
22,656.250000000000,0.0,0.0
23,687.500000000000,0.0,0.0
24,718.750000000000,0.0,0.0
25,750.000000000000,0.0,0.0
26,781.250000000000,0.0,0.0
27,812.500000000000,0.0,0.0
28,843.750000000000,0.0,0.0
29,875.000000000000,0.0,0.0
30,906.250000000000,0.0,0.0
31,937.500000000000,0.0,0.0
32,968.750000000000,0.0,0.0
33,1000.000000000000,0.0,0.0
34,1031.250000000000,0.0,0.0
35,1062.500000000000,0.0,0.0
36,1093.750000000000,0.0,0.0
37,1125.000000000000,0.0,0.0
38,1156.250000000000,0.0,0.0
39,1187.500000000000,0.0,0.0
40,1218.750000000000,0.0,0.0
41,1250.000000000000,0.0,0.0
42,1281.250000000000,0.0,0.0
43,1312.500000000000,0.0,0.0
44,1343.750000000000,0.0,0.0
45,1375.000000000000,0.0,0.0
46,1406.250000000000,0.0,0.0
47,1437.500000000000,0.0,0.0
48,1468.750000000000,0.0,0.0
49,1500.000000000000,0.0,0.0
50,1531.250000000000,0.0,0.0
51,1562.500000000000,0.0,0.0
52,1593.750000000000,0.0,0.0
53,1625.000000000000,0.0,0.0
54,1656.250000000000,0.0,0.0
55,1687.500000000000,0.0,0.0
56,1718.750000000000,0.0,0.0
57,1750.000000000000,0.0,0.0
58,1781.250000000000,0.0,0.0
59,1812.500000000000,0.0,0.0
60,1843.750000000000,0.0,0.0
61,1875.000000000000,0.0,0.0
62,1906.250000000000,0.0,0.0
63,1937.500000000000,0.0,0.0
64,1968.750000000000,0.0,0.0
65,2000.000000000000,0.0,0.0
*ELEMENT,TYPE=B32R,ELSET=BEAM
1,1,2,3
2,3,4,5
3,5,6,7
4,7,8,9
5,9,10,11
6,11,12,13
7,13,14,15
8,15,16,17
9,17,18,19
10,19,20,21
11,21,22,23
12,23,24,25
13,25,26,27
14,27,28,29
15,29,30,31
16,31,32,33
17,33,34,35
18,35,36,37
19,37,38,39
20,39,40,41
21,41,42,43
22,43,44,45
23,45,46,47
24,47,48,49
25,49,50,51
26,51,52,53
27,53,54,55
28,55,56,57
29,57,58,59
30,59,60,61
31,61,62,63
32,63,64,65
*NSET,NSET=FIXED
1
*NSET,NSET=TIP
65
*MATERIAL,NAME=GENERIC_LINEAR_ELASTIC
*ELASTIC
200000.000000000000,0.300000000000
*BEAM SECTION,ELSET=BEAM,MATERIAL=GENERIC_LINEAR_ELASTIC,SECTION=RECT
100.000000000000,100.000000000000
0.0,1.0,0.0
*STEP
*STATIC
*BOUNDARY
FIXED,1,6
*CLOAD
TIP,3,-10000.000000000000
*NODE FILE
U,RF
*EL FILE
S,E
*NODE PRINT,NSET=TIP,FREQUENCY=1
U
*NODE PRINT,NSET=FIXED,TOTALS=ONLY,FREQUENCY=1
RF
*END STEP
