*HEADING
V10U independent linear B32R cantilever benchmark: v10u_mesh_064
*NODE,NSET=ALL
1,0.000000000000,0.0,0.0
2,15.625000000000,0.0,0.0
3,31.250000000000,0.0,0.0
4,46.875000000000,0.0,0.0
5,62.500000000000,0.0,0.0
6,78.125000000000,0.0,0.0
7,93.750000000000,0.0,0.0
8,109.375000000000,0.0,0.0
9,125.000000000000,0.0,0.0
10,140.625000000000,0.0,0.0
11,156.250000000000,0.0,0.0
12,171.875000000000,0.0,0.0
13,187.500000000000,0.0,0.0
14,203.125000000000,0.0,0.0
15,218.750000000000,0.0,0.0
16,234.375000000000,0.0,0.0
17,250.000000000000,0.0,0.0
18,265.625000000000,0.0,0.0
19,281.250000000000,0.0,0.0
20,296.875000000000,0.0,0.0
21,312.500000000000,0.0,0.0
22,328.125000000000,0.0,0.0
23,343.750000000000,0.0,0.0
24,359.375000000000,0.0,0.0
25,375.000000000000,0.0,0.0
26,390.625000000000,0.0,0.0
27,406.250000000000,0.0,0.0
28,421.875000000000,0.0,0.0
29,437.500000000000,0.0,0.0
30,453.125000000000,0.0,0.0
31,468.750000000000,0.0,0.0
32,484.375000000000,0.0,0.0
33,500.000000000000,0.0,0.0
34,515.625000000000,0.0,0.0
35,531.250000000000,0.0,0.0
36,546.875000000000,0.0,0.0
37,562.500000000000,0.0,0.0
38,578.125000000000,0.0,0.0
39,593.750000000000,0.0,0.0
40,609.375000000000,0.0,0.0
41,625.000000000000,0.0,0.0
42,640.625000000000,0.0,0.0
43,656.250000000000,0.0,0.0
44,671.875000000000,0.0,0.0
45,687.500000000000,0.0,0.0
46,703.125000000000,0.0,0.0
47,718.750000000000,0.0,0.0
48,734.375000000000,0.0,0.0
49,750.000000000000,0.0,0.0
50,765.625000000000,0.0,0.0
51,781.250000000000,0.0,0.0
52,796.875000000000,0.0,0.0
53,812.500000000000,0.0,0.0
54,828.125000000000,0.0,0.0
55,843.750000000000,0.0,0.0
56,859.375000000000,0.0,0.0
57,875.000000000000,0.0,0.0
58,890.625000000000,0.0,0.0
59,906.250000000000,0.0,0.0
60,921.875000000000,0.0,0.0
61,937.500000000000,0.0,0.0
62,953.125000000000,0.0,0.0
63,968.750000000000,0.0,0.0
64,984.375000000000,0.0,0.0
65,1000.000000000000,0.0,0.0
66,1015.625000000000,0.0,0.0
67,1031.250000000000,0.0,0.0
68,1046.875000000000,0.0,0.0
69,1062.500000000000,0.0,0.0
70,1078.125000000000,0.0,0.0
71,1093.750000000000,0.0,0.0
72,1109.375000000000,0.0,0.0
73,1125.000000000000,0.0,0.0
74,1140.625000000000,0.0,0.0
75,1156.250000000000,0.0,0.0
76,1171.875000000000,0.0,0.0
77,1187.500000000000,0.0,0.0
78,1203.125000000000,0.0,0.0
79,1218.750000000000,0.0,0.0
80,1234.375000000000,0.0,0.0
81,1250.000000000000,0.0,0.0
82,1265.625000000000,0.0,0.0
83,1281.250000000000,0.0,0.0
84,1296.875000000000,0.0,0.0
85,1312.500000000000,0.0,0.0
86,1328.125000000000,0.0,0.0
87,1343.750000000000,0.0,0.0
88,1359.375000000000,0.0,0.0
89,1375.000000000000,0.0,0.0
90,1390.625000000000,0.0,0.0
91,1406.250000000000,0.0,0.0
92,1421.875000000000,0.0,0.0
93,1437.500000000000,0.0,0.0
94,1453.125000000000,0.0,0.0
95,1468.750000000000,0.0,0.0
96,1484.375000000000,0.0,0.0
97,1500.000000000000,0.0,0.0
98,1515.625000000000,0.0,0.0
99,1531.250000000000,0.0,0.0
100,1546.875000000000,0.0,0.0
101,1562.500000000000,0.0,0.0
102,1578.125000000000,0.0,0.0
103,1593.750000000000,0.0,0.0
104,1609.375000000000,0.0,0.0
105,1625.000000000000,0.0,0.0
106,1640.625000000000,0.0,0.0
107,1656.250000000000,0.0,0.0
108,1671.875000000000,0.0,0.0
109,1687.500000000000,0.0,0.0
110,1703.125000000000,0.0,0.0
111,1718.750000000000,0.0,0.0
112,1734.375000000000,0.0,0.0
113,1750.000000000000,0.0,0.0
114,1765.625000000000,0.0,0.0
115,1781.250000000000,0.0,0.0
116,1796.875000000000,0.0,0.0
117,1812.500000000000,0.0,0.0
118,1828.125000000000,0.0,0.0
119,1843.750000000000,0.0,0.0
120,1859.375000000000,0.0,0.0
121,1875.000000000000,0.0,0.0
122,1890.625000000000,0.0,0.0
123,1906.250000000000,0.0,0.0
124,1921.875000000000,0.0,0.0
125,1937.500000000000,0.0,0.0
126,1953.125000000000,0.0,0.0
127,1968.750000000000,0.0,0.0
128,1984.375000000000,0.0,0.0
129,2000.000000000000,0.0,0.0
*ELEMENT,TYPE=B32R,ELSET=BEAM
1,1,2,3
2,3,4,5
3,5,6,7
4,7,8,9
5,9,10,11
6,11,12,13
7,13,14,15
8,15,16,17
9,17,18,19
10,19,20,21
11,21,22,23
12,23,24,25
13,25,26,27
14,27,28,29
15,29,30,31
16,31,32,33
17,33,34,35
18,35,36,37
19,37,38,39
20,39,40,41
21,41,42,43
22,43,44,45
23,45,46,47
24,47,48,49
25,49,50,51
26,51,52,53
27,53,54,55
28,55,56,57
29,57,58,59
30,59,60,61
31,61,62,63
32,63,64,65
33,65,66,67
34,67,68,69
35,69,70,71
36,71,72,73
37,73,74,75
38,75,76,77
39,77,78,79
40,79,80,81
41,81,82,83
42,83,84,85
43,85,86,87
44,87,88,89
45,89,90,91
46,91,92,93
47,93,94,95
48,95,96,97
49,97,98,99
50,99,100,101
51,101,102,103
52,103,104,105
53,105,106,107
54,107,108,109
55,109,110,111
56,111,112,113
57,113,114,115
58,115,116,117
59,117,118,119
60,119,120,121
61,121,122,123
62,123,124,125
63,125,126,127
64,127,128,129
*NSET,NSET=FIXED
1
*NSET,NSET=TIP
129
*MATERIAL,NAME=GENERIC_LINEAR_ELASTIC
*ELASTIC
200000.000000000000,0.300000000000
*BEAM SECTION,ELSET=BEAM,MATERIAL=GENERIC_LINEAR_ELASTIC,SECTION=RECT
100.000000000000,100.000000000000
0.0,1.0,0.0
*STEP
*STATIC
*BOUNDARY
FIXED,1,6
*CLOAD
TIP,3,-10000.000000000000
*NODE FILE
U,RF
*EL FILE
S,E
*NODE PRINT,NSET=TIP,FREQUENCY=1
U
*NODE PRINT,NSET=FIXED,TOTALS=ONLY,FREQUENCY=1
RF
*END STEP
