*HEADING
V10U independent linear B32R cantilever benchmark: v10u_mesh_016
*NODE,NSET=ALL
1,0.000000000000,0.0,0.0
2,62.500000000000,0.0,0.0
3,125.000000000000,0.0,0.0
4,187.500000000000,0.0,0.0
5,250.000000000000,0.0,0.0
6,312.500000000000,0.0,0.0
7,375.000000000000,0.0,0.0
8,437.500000000000,0.0,0.0
9,500.000000000000,0.0,0.0
10,562.500000000000,0.0,0.0
11,625.000000000000,0.0,0.0
12,687.500000000000,0.0,0.0
13,750.000000000000,0.0,0.0
14,812.500000000000,0.0,0.0
15,875.000000000000,0.0,0.0
16,937.500000000000,0.0,0.0
17,1000.000000000000,0.0,0.0
18,1062.500000000000,0.0,0.0
19,1125.000000000000,0.0,0.0
20,1187.500000000000,0.0,0.0
21,1250.000000000000,0.0,0.0
22,1312.500000000000,0.0,0.0
23,1375.000000000000,0.0,0.0
24,1437.500000000000,0.0,0.0
25,1500.000000000000,0.0,0.0
26,1562.500000000000,0.0,0.0
27,1625.000000000000,0.0,0.0
28,1687.500000000000,0.0,0.0
29,1750.000000000000,0.0,0.0
30,1812.500000000000,0.0,0.0
31,1875.000000000000,0.0,0.0
32,1937.500000000000,0.0,0.0
33,2000.000000000000,0.0,0.0
*ELEMENT,TYPE=B32R,ELSET=BEAM
1,1,2,3
2,3,4,5
3,5,6,7
4,7,8,9
5,9,10,11
6,11,12,13
7,13,14,15
8,15,16,17
9,17,18,19
10,19,20,21
11,21,22,23
12,23,24,25
13,25,26,27
14,27,28,29
15,29,30,31
16,31,32,33
*NSET,NSET=FIXED
1
*NSET,NSET=TIP
33
*MATERIAL,NAME=GENERIC_LINEAR_ELASTIC
*ELASTIC
200000.000000000000,0.300000000000
*BEAM SECTION,ELSET=BEAM,MATERIAL=GENERIC_LINEAR_ELASTIC,SECTION=RECT
100.000000000000,100.000000000000
0.0,1.0,0.0
*STEP
*STATIC
*BOUNDARY
FIXED,1,6
*CLOAD
TIP,3,-10000.000000000000
*NODE FILE
U,RF
*EL FILE
S,E
*NODE PRINT,NSET=TIP,FREQUENCY=1
U
*NODE PRINT,NSET=FIXED,TOTALS=ONLY,FREQUENCY=1
RF
*END STEP
