*HEADING
V10U independent linear B32R cantilever benchmark: v10u_mesh_004
*NODE,NSET=ALL
1,0.000000000000,0.0,0.0
2,250.000000000000,0.0,0.0
3,500.000000000000,0.0,0.0
4,750.000000000000,0.0,0.0
5,1000.000000000000,0.0,0.0
6,1250.000000000000,0.0,0.0
7,1500.000000000000,0.0,0.0
8,1750.000000000000,0.0,0.0
9,2000.000000000000,0.0,0.0
*ELEMENT,TYPE=B32R,ELSET=BEAM
1,1,2,3
2,3,4,5
3,5,6,7
4,7,8,9
*NSET,NSET=FIXED
1
*NSET,NSET=TIP
9
*MATERIAL,NAME=GENERIC_LINEAR_ELASTIC
*ELASTIC
200000.000000000000,0.300000000000
*BEAM SECTION,ELSET=BEAM,MATERIAL=GENERIC_LINEAR_ELASTIC,SECTION=RECT
100.000000000000,100.000000000000
0.0,1.0,0.0
*STEP
*STATIC
*BOUNDARY
FIXED,1,6
*CLOAD
TIP,3,-10000.000000000000
*NODE FILE
U,RF
*EL FILE
S,E
*NODE PRINT,NSET=TIP,FREQUENCY=1
U
*NODE PRINT,NSET=FIXED,TOTALS=ONLY,FREQUENCY=1
RF
*END STEP
