*HEADING
V10U independent linear B32R cantilever benchmark: v10u_mesh_008
*NODE,NSET=ALL
1,0.000000000000,0.0,0.0
2,125.000000000000,0.0,0.0
3,250.000000000000,0.0,0.0
4,375.000000000000,0.0,0.0
5,500.000000000000,0.0,0.0
6,625.000000000000,0.0,0.0
7,750.000000000000,0.0,0.0
8,875.000000000000,0.0,0.0
9,1000.000000000000,0.0,0.0
10,1125.000000000000,0.0,0.0
11,1250.000000000000,0.0,0.0
12,1375.000000000000,0.0,0.0
13,1500.000000000000,0.0,0.0
14,1625.000000000000,0.0,0.0
15,1750.000000000000,0.0,0.0
16,1875.000000000000,0.0,0.0
17,2000.000000000000,0.0,0.0
*ELEMENT,TYPE=B32R,ELSET=BEAM
1,1,2,3
2,3,4,5
3,5,6,7
4,7,8,9
5,9,10,11
6,11,12,13
7,13,14,15
8,15,16,17
*NSET,NSET=FIXED
1
*NSET,NSET=TIP
17
*MATERIAL,NAME=GENERIC_LINEAR_ELASTIC
*ELASTIC
200000.000000000000,0.300000000000
*BEAM SECTION,ELSET=BEAM,MATERIAL=GENERIC_LINEAR_ELASTIC,SECTION=RECT
100.000000000000,100.000000000000
0.0,1.0,0.0
*STEP
*STATIC
*BOUNDARY
FIXED,1,6
*CLOAD
TIP,3,-10000.000000000000
*NODE FILE
U,RF
*EL FILE
S,E
*NODE PRINT,NSET=TIP,FREQUENCY=1
U
*NODE PRINT,NSET=FIXED,TOTALS=ONLY,FREQUENCY=1
RF
*END STEP
