*HEADING
V10V independent B32R column benchmark: v10v_eigen_008
*NODE,NSET=ALL
1,0.000000000000,0.000000000000,0.000000000000
2,0.000000000000,0.000000000000,125.000000000000
3,0.000000000000,0.000000000000,250.000000000000
4,0.000000000000,0.000000000000,375.000000000000
5,0.000000000000,0.000000000000,500.000000000000
6,0.000000000000,0.000000000000,625.000000000000
7,0.000000000000,0.000000000000,750.000000000000
8,0.000000000000,0.000000000000,875.000000000000
9,0.000000000000,0.000000000000,1000.000000000000
10,0.000000000000,0.000000000000,1125.000000000000
11,0.000000000000,0.000000000000,1250.000000000000
12,0.000000000000,0.000000000000,1375.000000000000
13,0.000000000000,0.000000000000,1500.000000000000
14,0.000000000000,0.000000000000,1625.000000000000
15,0.000000000000,0.000000000000,1750.000000000000
16,0.000000000000,0.000000000000,1875.000000000000
17,0.000000000000,0.000000000000,2000.000000000000
*ELEMENT,TYPE=B32R,ELSET=COLUMN
1,1,2,3
2,3,4,5
3,5,6,7
4,7,8,9
5,9,10,11
6,11,12,13
7,13,14,15
8,15,16,17
*NSET,NSET=BOTTOM
1
*NSET,NSET=MID
9
*NSET,NSET=TOP
17
*MATERIAL,NAME=GENERIC_LINEAR_ELASTIC
*ELASTIC
200000.000000000000,0.300000000000
*BEAM SECTION,ELSET=COLUMN,MATERIAL=GENERIC_LINEAR_ELASTIC,SECTION=RECT
40.000000000000,40.000000000000
0.0,1.0,0.0
*STEP
*BUCKLE
6,0.01
*BOUNDARY
BOTTOM,1,3
BOTTOM,6,6
TOP,1,2
*CLOAD
TOP,3,-1.000000000000
*NODE FILE
U
*END STEP
