*HEADING
V10V independent B32R column benchmark: v10v_eigen_064
*NODE,NSET=ALL
1,0.000000000000,0.000000000000,0.000000000000
2,0.000000000000,0.000000000000,15.625000000000
3,0.000000000000,0.000000000000,31.250000000000
4,0.000000000000,0.000000000000,46.875000000000
5,0.000000000000,0.000000000000,62.500000000000
6,0.000000000000,0.000000000000,78.125000000000
7,0.000000000000,0.000000000000,93.750000000000
8,0.000000000000,0.000000000000,109.375000000000
9,0.000000000000,0.000000000000,125.000000000000
10,0.000000000000,0.000000000000,140.625000000000
11,0.000000000000,0.000000000000,156.250000000000
12,0.000000000000,0.000000000000,171.875000000000
13,0.000000000000,0.000000000000,187.500000000000
14,0.000000000000,0.000000000000,203.125000000000
15,0.000000000000,0.000000000000,218.750000000000
16,0.000000000000,0.000000000000,234.375000000000
17,0.000000000000,0.000000000000,250.000000000000
18,0.000000000000,0.000000000000,265.625000000000
19,0.000000000000,0.000000000000,281.250000000000
20,0.000000000000,0.000000000000,296.875000000000
21,0.000000000000,0.000000000000,312.500000000000
22,0.000000000000,0.000000000000,328.125000000000
23,0.000000000000,0.000000000000,343.750000000000
24,0.000000000000,0.000000000000,359.375000000000
25,0.000000000000,0.000000000000,375.000000000000
26,0.000000000000,0.000000000000,390.625000000000
27,0.000000000000,0.000000000000,406.250000000000
28,0.000000000000,0.000000000000,421.875000000000
29,0.000000000000,0.000000000000,437.500000000000
30,0.000000000000,0.000000000000,453.125000000000
31,0.000000000000,0.000000000000,468.750000000000
32,0.000000000000,0.000000000000,484.375000000000
33,0.000000000000,0.000000000000,500.000000000000
34,0.000000000000,0.000000000000,515.625000000000
35,0.000000000000,0.000000000000,531.250000000000
36,0.000000000000,0.000000000000,546.875000000000
37,0.000000000000,0.000000000000,562.500000000000
38,0.000000000000,0.000000000000,578.125000000000
39,0.000000000000,0.000000000000,593.750000000000
40,0.000000000000,0.000000000000,609.375000000000
41,0.000000000000,0.000000000000,625.000000000000
42,0.000000000000,0.000000000000,640.625000000000
43,0.000000000000,0.000000000000,656.250000000000
44,0.000000000000,0.000000000000,671.875000000000
45,0.000000000000,0.000000000000,687.500000000000
46,0.000000000000,0.000000000000,703.125000000000
47,0.000000000000,0.000000000000,718.750000000000
48,0.000000000000,0.000000000000,734.375000000000
49,0.000000000000,0.000000000000,750.000000000000
50,0.000000000000,0.000000000000,765.625000000000
51,0.000000000000,0.000000000000,781.250000000000
52,0.000000000000,0.000000000000,796.875000000000
53,0.000000000000,0.000000000000,812.500000000000
54,0.000000000000,0.000000000000,828.125000000000
55,0.000000000000,0.000000000000,843.750000000000
56,0.000000000000,0.000000000000,859.375000000000
57,0.000000000000,0.000000000000,875.000000000000
58,0.000000000000,0.000000000000,890.625000000000
59,0.000000000000,0.000000000000,906.250000000000
60,0.000000000000,0.000000000000,921.875000000000
61,0.000000000000,0.000000000000,937.500000000000
62,0.000000000000,0.000000000000,953.125000000000
63,0.000000000000,0.000000000000,968.750000000000
64,0.000000000000,0.000000000000,984.375000000000
65,0.000000000000,0.000000000000,1000.000000000000
66,0.000000000000,0.000000000000,1015.625000000000
67,0.000000000000,0.000000000000,1031.250000000000
68,0.000000000000,0.000000000000,1046.875000000000
69,0.000000000000,0.000000000000,1062.500000000000
70,0.000000000000,0.000000000000,1078.125000000000
71,0.000000000000,0.000000000000,1093.750000000000
72,0.000000000000,0.000000000000,1109.375000000000
73,0.000000000000,0.000000000000,1125.000000000000
74,0.000000000000,0.000000000000,1140.625000000000
75,0.000000000000,0.000000000000,1156.250000000000
76,0.000000000000,0.000000000000,1171.875000000000
77,0.000000000000,0.000000000000,1187.500000000000
78,0.000000000000,0.000000000000,1203.125000000000
79,0.000000000000,0.000000000000,1218.750000000000
80,0.000000000000,0.000000000000,1234.375000000000
81,0.000000000000,0.000000000000,1250.000000000000
82,0.000000000000,0.000000000000,1265.625000000000
83,0.000000000000,0.000000000000,1281.250000000000
84,0.000000000000,0.000000000000,1296.875000000000
85,0.000000000000,0.000000000000,1312.500000000000
86,0.000000000000,0.000000000000,1328.125000000000
87,0.000000000000,0.000000000000,1343.750000000000
88,0.000000000000,0.000000000000,1359.375000000000
89,0.000000000000,0.000000000000,1375.000000000000
90,0.000000000000,0.000000000000,1390.625000000000
91,0.000000000000,0.000000000000,1406.250000000000
92,0.000000000000,0.000000000000,1421.875000000000
93,0.000000000000,0.000000000000,1437.500000000000
94,0.000000000000,0.000000000000,1453.125000000000
95,0.000000000000,0.000000000000,1468.750000000000
96,0.000000000000,0.000000000000,1484.375000000000
97,0.000000000000,0.000000000000,1500.000000000000
98,0.000000000000,0.000000000000,1515.625000000000
99,0.000000000000,0.000000000000,1531.250000000000
100,0.000000000000,0.000000000000,1546.875000000000
101,0.000000000000,0.000000000000,1562.500000000000
102,0.000000000000,0.000000000000,1578.125000000000
103,0.000000000000,0.000000000000,1593.750000000000
104,0.000000000000,0.000000000000,1609.375000000000
105,0.000000000000,0.000000000000,1625.000000000000
106,0.000000000000,0.000000000000,1640.625000000000
107,0.000000000000,0.000000000000,1656.250000000000
108,0.000000000000,0.000000000000,1671.875000000000
109,0.000000000000,0.000000000000,1687.500000000000
110,0.000000000000,0.000000000000,1703.125000000000
111,0.000000000000,0.000000000000,1718.750000000000
112,0.000000000000,0.000000000000,1734.375000000000
113,0.000000000000,0.000000000000,1750.000000000000
114,0.000000000000,0.000000000000,1765.625000000000
115,0.000000000000,0.000000000000,1781.250000000000
116,0.000000000000,0.000000000000,1796.875000000000
117,0.000000000000,0.000000000000,1812.500000000000
118,0.000000000000,0.000000000000,1828.125000000000
119,0.000000000000,0.000000000000,1843.750000000000
120,0.000000000000,0.000000000000,1859.375000000000
121,0.000000000000,0.000000000000,1875.000000000000
122,0.000000000000,0.000000000000,1890.625000000000
123,0.000000000000,0.000000000000,1906.250000000000
124,0.000000000000,0.000000000000,1921.875000000000
125,0.000000000000,0.000000000000,1937.500000000000
126,0.000000000000,0.000000000000,1953.125000000000
127,0.000000000000,0.000000000000,1968.750000000000
128,0.000000000000,0.000000000000,1984.375000000000
129,0.000000000000,0.000000000000,2000.000000000000
*ELEMENT,TYPE=B32R,ELSET=COLUMN
1,1,2,3
2,3,4,5
3,5,6,7
4,7,8,9
5,9,10,11
6,11,12,13
7,13,14,15
8,15,16,17
9,17,18,19
10,19,20,21
11,21,22,23
12,23,24,25
13,25,26,27
14,27,28,29
15,29,30,31
16,31,32,33
17,33,34,35
18,35,36,37
19,37,38,39
20,39,40,41
21,41,42,43
22,43,44,45
23,45,46,47
24,47,48,49
25,49,50,51
26,51,52,53
27,53,54,55
28,55,56,57
29,57,58,59
30,59,60,61
31,61,62,63
32,63,64,65
33,65,66,67
34,67,68,69
35,69,70,71
36,71,72,73
37,73,74,75
38,75,76,77
39,77,78,79
40,79,80,81
41,81,82,83
42,83,84,85
43,85,86,87
44,87,88,89
45,89,90,91
46,91,92,93
47,93,94,95
48,95,96,97
49,97,98,99
50,99,100,101
51,101,102,103
52,103,104,105
53,105,106,107
54,107,108,109
55,109,110,111
56,111,112,113
57,113,114,115
58,115,116,117
59,117,118,119
60,119,120,121
61,121,122,123
62,123,124,125
63,125,126,127
64,127,128,129
*NSET,NSET=BOTTOM
1
*NSET,NSET=MID
65
*NSET,NSET=TOP
129
*MATERIAL,NAME=GENERIC_LINEAR_ELASTIC
*ELASTIC
200000.000000000000,0.300000000000
*BEAM SECTION,ELSET=COLUMN,MATERIAL=GENERIC_LINEAR_ELASTIC,SECTION=RECT
40.000000000000,40.000000000000
0.0,1.0,0.0
*STEP
*BUCKLE
6,0.01
*BOUNDARY
BOTTOM,1,3
BOTTOM,6,6
TOP,1,2
*CLOAD
TOP,3,-1.000000000000
*NODE FILE
U
*END STEP
