*HEADING
V10V independent B32R column benchmark: v10v_nonlinear_032
*NODE,NSET=ALL
1,0.000000000000,0.000000000000,0.000000000000
2,0.098135348655,0.000000000000,31.250000000000
3,0.196034280659,0.000000000000,62.500000000000
4,0.293460948911,0.000000000000,93.750000000000
5,0.390180644032,0.000000000000,125.000000000000
6,0.485960359807,0.000000000000,156.250000000000
7,0.580569354509,0.000000000000,187.500000000000
8,0.673779706784,0.000000000000,218.750000000000
9,0.765366864730,0.000000000000,250.000000000000
10,0.855110186861,0.000000000000,281.250000000000
11,0.942793473652,0.000000000000,312.500000000000
12,1.028205488386,0.000000000000,343.750000000000
13,1.111140466039,0.000000000000,375.000000000000
14,1.191398608985,0.000000000000,406.250000000000
15,1.268786568327,0.000000000000,437.500000000000
16,1.343117909694,0.000000000000,468.750000000000
17,1.414213562373,0.000000000000,500.000000000000
18,1.481902250710,0.000000000000,531.250000000000
19,1.546020906725,0.000000000000,562.500000000000
20,1.606415062961,0.000000000000,593.750000000000
21,1.662939224605,0.000000000000,625.000000000000
22,1.715457220001,0.000000000000,656.250000000000
23,1.763842528697,0.000000000000,687.500000000000
24,1.807978586247,0.000000000000,718.750000000000
25,1.847759065023,0.000000000000,750.000000000000
26,1.883088130366,0.000000000000,781.250000000000
27,1.913880671464,0.000000000000,812.500000000000
28,1.940062506389,0.000000000000,843.750000000000
29,1.961570560806,0.000000000000,875.000000000000
30,1.978353019930,0.000000000000,906.250000000000
31,1.990369453344,0.000000000000,937.500000000000
32,1.997590912410,0.000000000000,968.750000000000
33,2.000000000000,0.000000000000,1000.000000000000
34,1.997590912410,0.000000000000,1031.250000000000
35,1.990369453344,0.000000000000,1062.500000000000
36,1.978353019930,0.000000000000,1093.750000000000
37,1.961570560806,0.000000000000,1125.000000000000
38,1.940062506389,0.000000000000,1156.250000000000
39,1.913880671464,0.000000000000,1187.500000000000
40,1.883088130366,0.000000000000,1218.750000000000
41,1.847759065023,0.000000000000,1250.000000000000
42,1.807978586247,0.000000000000,1281.250000000000
43,1.763842528697,0.000000000000,1312.500000000000
44,1.715457220001,0.000000000000,1343.750000000000
45,1.662939224605,0.000000000000,1375.000000000000
46,1.606415062961,0.000000000000,1406.250000000000
47,1.546020906725,0.000000000000,1437.500000000000
48,1.481902250710,0.000000000000,1468.750000000000
49,1.414213562373,0.000000000000,1500.000000000000
50,1.343117909694,0.000000000000,1531.250000000000
51,1.268786568327,0.000000000000,1562.500000000000
52,1.191398608985,0.000000000000,1593.750000000000
53,1.111140466039,0.000000000000,1625.000000000000
54,1.028205488386,0.000000000000,1656.250000000000
55,0.942793473652,0.000000000000,1687.500000000000
56,0.855110186861,0.000000000000,1718.750000000000
57,0.765366864730,0.000000000000,1750.000000000000
58,0.673779706784,0.000000000000,1781.250000000000
59,0.580569354509,0.000000000000,1812.500000000000
60,0.485960359807,0.000000000000,1843.750000000000
61,0.390180644032,0.000000000000,1875.000000000000
62,0.293460948911,0.000000000000,1906.250000000000
63,0.196034280659,0.000000000000,1937.500000000000
64,0.098135348655,0.000000000000,1968.750000000000
65,0.000000000000,0.000000000000,2000.000000000000
*ELEMENT,TYPE=B32R,ELSET=COLUMN
1,1,2,3
2,3,4,5
3,5,6,7
4,7,8,9
5,9,10,11
6,11,12,13
7,13,14,15
8,15,16,17
9,17,18,19
10,19,20,21
11,21,22,23
12,23,24,25
13,25,26,27
14,27,28,29
15,29,30,31
16,31,32,33
17,33,34,35
18,35,36,37
19,37,38,39
20,39,40,41
21,41,42,43
22,43,44,45
23,45,46,47
24,47,48,49
25,49,50,51
26,51,52,53
27,53,54,55
28,55,56,57
29,57,58,59
30,59,60,61
31,61,62,63
32,63,64,65
*NSET,NSET=BOTTOM
1
*NSET,NSET=MID
33
*NSET,NSET=TOP
65
*MATERIAL,NAME=GENERIC_LINEAR_ELASTIC
*ELASTIC
200000.000000000000,0.300000000000
*BEAM SECTION,ELSET=COLUMN,MATERIAL=GENERIC_LINEAR_ELASTIC,SECTION=RECT
40.000000000000,40.000000000000
0.0,1.0,0.0
*STEP,NLGEOM,INC=2000
*STATIC
0.002,1.0,1e-08,0.01
*BOUNDARY
BOTTOM,1,3
BOTTOM,6,6
TOP,1,2
TOP,3,3,-8.000000000000
*NODE FILE
U,RF
*EL FILE
S,E
*NODE PRINT,NSET=TOP,FREQUENCY=1
U
*NODE PRINT,NSET=MID,FREQUENCY=1
U
*NODE PRINT,NSET=BOTTOM,TOTALS=ONLY,FREQUENCY=1
RF
*NODE PRINT,NSET=TOP,TOTALS=ONLY,FREQUENCY=1
RF
*END STEP
