*HEADING
V10V independent B32R column benchmark: v10v_nonlinear_016
*NODE,NSET=ALL
1,0.000000000000,0.000000000000,0.000000000000
2,0.196034280659,0.000000000000,62.500000000000
3,0.390180644032,0.000000000000,125.000000000000
4,0.580569354509,0.000000000000,187.500000000000
5,0.765366864730,0.000000000000,250.000000000000
6,0.942793473652,0.000000000000,312.500000000000
7,1.111140466039,0.000000000000,375.000000000000
8,1.268786568327,0.000000000000,437.500000000000
9,1.414213562373,0.000000000000,500.000000000000
10,1.546020906725,0.000000000000,562.500000000000
11,1.662939224605,0.000000000000,625.000000000000
12,1.763842528697,0.000000000000,687.500000000000
13,1.847759065023,0.000000000000,750.000000000000
14,1.913880671464,0.000000000000,812.500000000000
15,1.961570560806,0.000000000000,875.000000000000
16,1.990369453344,0.000000000000,937.500000000000
17,2.000000000000,0.000000000000,1000.000000000000
18,1.990369453344,0.000000000000,1062.500000000000
19,1.961570560806,0.000000000000,1125.000000000000
20,1.913880671464,0.000000000000,1187.500000000000
21,1.847759065023,0.000000000000,1250.000000000000
22,1.763842528697,0.000000000000,1312.500000000000
23,1.662939224605,0.000000000000,1375.000000000000
24,1.546020906725,0.000000000000,1437.500000000000
25,1.414213562373,0.000000000000,1500.000000000000
26,1.268786568327,0.000000000000,1562.500000000000
27,1.111140466039,0.000000000000,1625.000000000000
28,0.942793473652,0.000000000000,1687.500000000000
29,0.765366864730,0.000000000000,1750.000000000000
30,0.580569354509,0.000000000000,1812.500000000000
31,0.390180644032,0.000000000000,1875.000000000000
32,0.196034280659,0.000000000000,1937.500000000000
33,0.000000000000,0.000000000000,2000.000000000000
*ELEMENT,TYPE=B32R,ELSET=COLUMN
1,1,2,3
2,3,4,5
3,5,6,7
4,7,8,9
5,9,10,11
6,11,12,13
7,13,14,15
8,15,16,17
9,17,18,19
10,19,20,21
11,21,22,23
12,23,24,25
13,25,26,27
14,27,28,29
15,29,30,31
16,31,32,33
*NSET,NSET=BOTTOM
1
*NSET,NSET=MID
17
*NSET,NSET=TOP
33
*MATERIAL,NAME=GENERIC_LINEAR_ELASTIC
*ELASTIC
200000.000000000000,0.300000000000
*BEAM SECTION,ELSET=COLUMN,MATERIAL=GENERIC_LINEAR_ELASTIC,SECTION=RECT
40.000000000000,40.000000000000
0.0,1.0,0.0
*STEP,NLGEOM,INC=2000
*STATIC
0.002,1.0,1e-08,0.01
*BOUNDARY
BOTTOM,1,3
BOTTOM,6,6
TOP,1,2
TOP,3,3,-8.000000000000
*NODE FILE
U,RF
*EL FILE
S,E
*NODE PRINT,NSET=TOP,FREQUENCY=1
U
*NODE PRINT,NSET=MID,FREQUENCY=1
U
*NODE PRINT,NSET=BOTTOM,TOTALS=ONLY,FREQUENCY=1
RF
*NODE PRINT,NSET=TOP,TOTALS=ONLY,FREQUENCY=1
RF
*END STEP
