*HEADING
V8D v8d_f95_c705_t406p5_i500
*NODE
1,0.000000000,-167.030400000,0.000000000
2,0.000000000,-139.192000000,0.000000000
3,0.000000000,-111.353600000,0.000000000
4,0.000000000,-83.515200000,0.000000000
5,0.000000000,-55.676800000,0.000000000
6,0.000000000,-27.838400000,0.000000000
7,0.000000000,0.000000000,0.000000000
8,0.000000000,27.838400000,0.000000000
9,0.000000000,55.676800000,0.000000000
10,0.000000000,83.515200000,0.000000000
11,0.000000000,111.353600000,0.000000000
12,0.000000000,139.192000000,0.000000000
13,0.000000000,167.030400000,0.000000000
14,-101.600000000,167.030400000,0.000000000
15,-84.666666667,167.030400000,0.000000000
16,-67.733333333,167.030400000,0.000000000
17,-50.800000000,167.030400000,0.000000000
18,-33.866666667,167.030400000,0.000000000
19,-16.933333333,167.030400000,0.000000000
20,16.933333333,167.030400000,0.000000000
21,33.866666667,167.030400000,0.000000000
22,50.800000000,167.030400000,0.000000000
23,67.733333333,167.030400000,0.000000000
24,84.666666667,167.030400000,0.000000000
25,101.600000000,167.030400000,0.000000000
26,-101.600000000,-167.030400000,0.000000000
27,-84.666666667,-167.030400000,0.000000000
28,-67.733333333,-167.030400000,0.000000000
29,-50.800000000,-167.030400000,0.000000000
30,-33.866666667,-167.030400000,0.000000000
31,-16.933333333,-167.030400000,0.000000000
32,16.933333333,-167.030400000,0.000000000
33,33.866666667,-167.030400000,0.000000000
34,50.800000000,-167.030400000,0.000000000
35,67.733333333,-167.030400000,0.000000000
36,84.666666667,-167.030400000,0.000000000
37,101.600000000,-167.030400000,0.000000000
38,0.954825201,-167.030400000,152.400000000
39,0.954825201,-139.192000000,152.400000000
40,0.954825201,-111.353600000,152.400000000
41,0.954825201,-83.515200000,152.400000000
42,0.954825201,-55.676800000,152.400000000
43,0.954825201,-27.838400000,152.400000000
44,0.954825201,0.000000000,152.400000000
45,0.954825201,27.838400000,152.400000000
46,0.954825201,55.676800000,152.400000000
47,0.954825201,83.515200000,152.400000000
48,0.954825201,111.353600000,152.400000000
49,0.954825201,139.192000000,152.400000000
50,0.954825201,167.030400000,152.400000000
51,-100.645174799,167.030400000,152.400000000
52,-83.711841465,167.030400000,152.400000000
53,-66.778508132,167.030400000,152.400000000
54,-49.845174799,167.030400000,152.400000000
55,-32.911841465,167.030400000,152.400000000
56,-15.978508132,167.030400000,152.400000000
57,17.888158535,167.030400000,152.400000000
58,34.821491868,167.030400000,152.400000000
59,51.754825201,167.030400000,152.400000000
60,68.688158535,167.030400000,152.400000000
61,85.621491868,167.030400000,152.400000000
62,102.554825201,167.030400000,152.400000000
63,-100.645174799,-167.030400000,152.400000000
64,-83.711841465,-167.030400000,152.400000000
65,-66.778508132,-167.030400000,152.400000000
66,-49.845174799,-167.030400000,152.400000000
67,-32.911841465,-167.030400000,152.400000000
68,-15.978508132,-167.030400000,152.400000000
69,17.888158535,-167.030400000,152.400000000
70,34.821491868,-167.030400000,152.400000000
71,51.754825201,-167.030400000,152.400000000
72,68.688158535,-167.030400000,152.400000000
73,85.621491868,-167.030400000,152.400000000
74,102.554825201,-167.030400000,152.400000000
75,1.893313079,-167.030400000,304.800000000
76,1.893313079,-139.192000000,304.800000000
77,1.893313079,-111.353600000,304.800000000
78,1.893313079,-83.515200000,304.800000000
79,1.893313079,-55.676800000,304.800000000
80,1.893313079,-27.838400000,304.800000000
81,1.893313079,0.000000000,304.800000000
82,1.893313079,27.838400000,304.800000000
83,1.893313079,55.676800000,304.800000000
84,1.893313079,83.515200000,304.800000000
85,1.893313079,111.353600000,304.800000000
86,1.893313079,139.192000000,304.800000000
87,1.893313079,167.030400000,304.800000000
88,-99.706686921,167.030400000,304.800000000
89,-82.773353588,167.030400000,304.800000000
90,-65.840020255,167.030400000,304.800000000
91,-48.906686921,167.030400000,304.800000000
92,-31.973353588,167.030400000,304.800000000
93,-15.040020255,167.030400000,304.800000000
94,18.826646412,167.030400000,304.800000000
95,35.759979745,167.030400000,304.800000000
96,52.693313079,167.030400000,304.800000000
97,69.626646412,167.030400000,304.800000000
98,86.559979745,167.030400000,304.800000000
99,103.493313079,167.030400000,304.800000000
100,-99.706686921,-167.030400000,304.800000000
101,-82.773353588,-167.030400000,304.800000000
102,-65.840020255,-167.030400000,304.800000000
103,-48.906686921,-167.030400000,304.800000000
104,-31.973353588,-167.030400000,304.800000000
105,-15.040020255,-167.030400000,304.800000000
106,18.826646412,-167.030400000,304.800000000
107,35.759979745,-167.030400000,304.800000000
108,52.693313079,-167.030400000,304.800000000
109,69.626646412,-167.030400000,304.800000000
110,86.559979745,-167.030400000,304.800000000
111,103.493313079,-167.030400000,304.800000000
112,2.799405844,-167.030400000,457.200000000
113,2.799405844,-139.192000000,457.200000000
114,2.799405844,-111.353600000,457.200000000
115,2.799405844,-83.515200000,457.200000000
116,2.799405844,-55.676800000,457.200000000
117,2.799405844,-27.838400000,457.200000000
118,2.799405844,0.000000000,457.200000000
119,2.799405844,27.838400000,457.200000000
120,2.799405844,55.676800000,457.200000000
121,2.799405844,83.515200000,457.200000000
122,2.799405844,111.353600000,457.200000000
123,2.799405844,139.192000000,457.200000000
124,2.799405844,167.030400000,457.200000000
125,-98.800594156,167.030400000,457.200000000
126,-81.867260822,167.030400000,457.200000000
127,-64.933927489,167.030400000,457.200000000
128,-48.000594156,167.030400000,457.200000000
129,-31.067260822,167.030400000,457.200000000
130,-14.133927489,167.030400000,457.200000000
131,19.732739178,167.030400000,457.200000000
132,36.666072511,167.030400000,457.200000000
133,53.599405844,167.030400000,457.200000000
134,70.532739178,167.030400000,457.200000000
135,87.466072511,167.030400000,457.200000000
136,104.399405844,167.030400000,457.200000000
137,-98.800594156,-167.030400000,457.200000000
138,-81.867260822,-167.030400000,457.200000000
139,-64.933927489,-167.030400000,457.200000000
140,-48.000594156,-167.030400000,457.200000000
141,-31.067260822,-167.030400000,457.200000000
142,-14.133927489,-167.030400000,457.200000000
143,19.732739178,-167.030400000,457.200000000
144,36.666072511,-167.030400000,457.200000000
145,53.599405844,-167.030400000,457.200000000
146,70.532739178,-167.030400000,457.200000000
147,87.466072511,-167.030400000,457.200000000
148,104.399405844,-167.030400000,457.200000000
149,3.657600000,-167.030400000,609.600000000
150,3.657600000,-139.192000000,609.600000000
151,3.657600000,-111.353600000,609.600000000
152,3.657600000,-83.515200000,609.600000000
153,3.657600000,-55.676800000,609.600000000
154,3.657600000,-27.838400000,609.600000000
155,3.657600000,0.000000000,609.600000000
156,3.657600000,27.838400000,609.600000000
157,3.657600000,55.676800000,609.600000000
158,3.657600000,83.515200000,609.600000000
159,3.657600000,111.353600000,609.600000000
160,3.657600000,139.192000000,609.600000000
161,3.657600000,167.030400000,609.600000000
162,-97.942400000,167.030400000,609.600000000
163,-81.009066667,167.030400000,609.600000000
164,-64.075733333,167.030400000,609.600000000
165,-47.142400000,167.030400000,609.600000000
166,-30.209066667,167.030400000,609.600000000
167,-13.275733333,167.030400000,609.600000000
168,20.590933333,167.030400000,609.600000000
169,37.524266667,167.030400000,609.600000000
170,54.457600000,167.030400000,609.600000000
171,71.390933333,167.030400000,609.600000000
172,88.324266667,167.030400000,609.600000000
173,105.257600000,167.030400000,609.600000000
174,-97.942400000,-167.030400000,609.600000000
175,-81.009066667,-167.030400000,609.600000000
176,-64.075733333,-167.030400000,609.600000000
177,-47.142400000,-167.030400000,609.600000000
178,-30.209066667,-167.030400000,609.600000000
179,-13.275733333,-167.030400000,609.600000000
180,20.590933333,-167.030400000,609.600000000
181,37.524266667,-167.030400000,609.600000000
182,54.457600000,-167.030400000,609.600000000
183,71.390933333,-167.030400000,609.600000000
184,88.324266667,-167.030400000,609.600000000
185,105.257600000,-167.030400000,609.600000000
186,4.453211605,-167.030400000,762.000000000
187,4.453211605,-139.192000000,762.000000000
188,4.453211605,-111.353600000,762.000000000
189,4.453211605,-83.515200000,762.000000000
190,4.453211605,-55.676800000,762.000000000
191,4.453211605,-27.838400000,762.000000000
192,4.453211605,0.000000000,762.000000000
193,4.453211605,27.838400000,762.000000000
194,4.453211605,55.676800000,762.000000000
195,4.453211605,83.515200000,762.000000000
196,4.453211605,111.353600000,762.000000000
197,4.453211605,139.192000000,762.000000000
198,4.453211605,167.030400000,762.000000000
199,-97.146788395,167.030400000,762.000000000
200,-80.213455061,167.030400000,762.000000000
201,-63.280121728,167.030400000,762.000000000
202,-46.346788395,167.030400000,762.000000000
203,-29.413455061,167.030400000,762.000000000
204,-12.480121728,167.030400000,762.000000000
205,21.386544939,167.030400000,762.000000000
206,38.319878272,167.030400000,762.000000000
207,55.253211605,167.030400000,762.000000000
208,72.186544939,167.030400000,762.000000000
209,89.119878272,167.030400000,762.000000000
210,106.053211605,167.030400000,762.000000000
211,-97.146788395,-167.030400000,762.000000000
212,-80.213455061,-167.030400000,762.000000000
213,-63.280121728,-167.030400000,762.000000000
214,-46.346788395,-167.030400000,762.000000000
215,-29.413455061,-167.030400000,762.000000000
216,-12.480121728,-167.030400000,762.000000000
217,21.386544939,-167.030400000,762.000000000
218,38.319878272,-167.030400000,762.000000000
219,55.253211605,-167.030400000,762.000000000
220,72.186544939,-167.030400000,762.000000000
221,89.119878272,-167.030400000,762.000000000
222,106.053211605,-167.030400000,762.000000000
223,5.172627526,-167.030400000,914.400000000
224,5.172627526,-139.192000000,914.400000000
225,5.172627526,-111.353600000,914.400000000
226,5.172627526,-83.515200000,914.400000000
227,5.172627526,-55.676800000,914.400000000
228,5.172627526,-27.838400000,914.400000000
229,5.172627526,0.000000000,914.400000000
230,5.172627526,27.838400000,914.400000000
231,5.172627526,55.676800000,914.400000000
232,5.172627526,83.515200000,914.400000000
233,5.172627526,111.353600000,914.400000000
234,5.172627526,139.192000000,914.400000000
235,5.172627526,167.030400000,914.400000000
236,-96.427372474,167.030400000,914.400000000
237,-79.494039141,167.030400000,914.400000000
238,-62.560705808,167.030400000,914.400000000
239,-45.627372474,167.030400000,914.400000000
240,-28.694039141,167.030400000,914.400000000
241,-11.760705808,167.030400000,914.400000000
242,22.105960859,167.030400000,914.400000000
243,39.039294192,167.030400000,914.400000000
244,55.972627526,167.030400000,914.400000000
245,72.905960859,167.030400000,914.400000000
246,89.839294192,167.030400000,914.400000000
247,106.772627526,167.030400000,914.400000000
248,-96.427372474,-167.030400000,914.400000000
249,-79.494039141,-167.030400000,914.400000000
250,-62.560705808,-167.030400000,914.400000000
251,-45.627372474,-167.030400000,914.400000000
252,-28.694039141,-167.030400000,914.400000000
253,-11.760705808,-167.030400000,914.400000000
254,22.105960859,-167.030400000,914.400000000
255,39.039294192,-167.030400000,914.400000000
256,55.972627526,-167.030400000,914.400000000
257,72.905960859,-167.030400000,914.400000000
258,89.839294192,-167.030400000,914.400000000
259,106.772627526,-167.030400000,914.400000000
260,5.803538355,-167.030400000,1066.800000000
261,5.803538355,-139.192000000,1066.800000000
262,5.803538355,-111.353600000,1066.800000000
263,5.803538355,-83.515200000,1066.800000000
264,5.803538355,-55.676800000,1066.800000000
265,5.803538355,-27.838400000,1066.800000000
266,5.803538355,0.000000000,1066.800000000
267,5.803538355,27.838400000,1066.800000000
268,5.803538355,55.676800000,1066.800000000
269,5.803538355,83.515200000,1066.800000000
270,5.803538355,111.353600000,1066.800000000
271,5.803538355,139.192000000,1066.800000000
272,5.803538355,167.030400000,1066.800000000
273,-95.796461645,167.030400000,1066.800000000
274,-78.863128312,167.030400000,1066.800000000
275,-61.929794978,167.030400000,1066.800000000
276,-44.996461645,167.030400000,1066.800000000
277,-28.063128312,167.030400000,1066.800000000
278,-11.129794978,167.030400000,1066.800000000
279,22.736871688,167.030400000,1066.800000000
280,39.670205022,167.030400000,1066.800000000
281,56.603538355,167.030400000,1066.800000000
282,73.536871688,167.030400000,1066.800000000
283,90.470205022,167.030400000,1066.800000000
284,107.403538355,167.030400000,1066.800000000
285,-95.796461645,-167.030400000,1066.800000000
286,-78.863128312,-167.030400000,1066.800000000
287,-61.929794978,-167.030400000,1066.800000000
288,-44.996461645,-167.030400000,1066.800000000
289,-28.063128312,-167.030400000,1066.800000000
290,-11.129794978,-167.030400000,1066.800000000
291,22.736871688,-167.030400000,1066.800000000
292,39.670205022,-167.030400000,1066.800000000
293,56.603538355,-167.030400000,1066.800000000
294,73.536871688,-167.030400000,1066.800000000
295,90.470205022,-167.030400000,1066.800000000
296,107.403538355,-167.030400000,1066.800000000
297,6.335149034,-167.030400000,1219.200000000
298,6.335149034,-139.192000000,1219.200000000
299,6.335149034,-111.353600000,1219.200000000
300,6.335149034,-83.515200000,1219.200000000
301,6.335149034,-55.676800000,1219.200000000
302,6.335149034,-27.838400000,1219.200000000
303,6.335149034,0.000000000,1219.200000000
304,6.335149034,27.838400000,1219.200000000
305,6.335149034,55.676800000,1219.200000000
306,6.335149034,83.515200000,1219.200000000
307,6.335149034,111.353600000,1219.200000000
308,6.335149034,139.192000000,1219.200000000
309,6.335149034,167.030400000,1219.200000000
310,-95.264850966,167.030400000,1219.200000000
311,-78.331517633,167.030400000,1219.200000000
312,-61.398184300,167.030400000,1219.200000000
313,-44.464850966,167.030400000,1219.200000000
314,-27.531517633,167.030400000,1219.200000000
315,-10.598184300,167.030400000,1219.200000000
316,23.268482367,167.030400000,1219.200000000
317,40.201815700,167.030400000,1219.200000000
318,57.135149034,167.030400000,1219.200000000
319,74.068482367,167.030400000,1219.200000000
320,91.001815700,167.030400000,1219.200000000
321,107.935149034,167.030400000,1219.200000000
322,-95.264850966,-167.030400000,1219.200000000
323,-78.331517633,-167.030400000,1219.200000000
324,-61.398184300,-167.030400000,1219.200000000
325,-44.464850966,-167.030400000,1219.200000000
326,-27.531517633,-167.030400000,1219.200000000
327,-10.598184300,-167.030400000,1219.200000000
328,23.268482367,-167.030400000,1219.200000000
329,40.201815700,-167.030400000,1219.200000000
330,57.135149034,-167.030400000,1219.200000000
331,74.068482367,-167.030400000,1219.200000000
332,91.001815700,-167.030400000,1219.200000000
333,107.935149034,-167.030400000,1219.200000000
334,6.758363556,-167.030400000,1371.600000000
335,6.758363556,-139.192000000,1371.600000000
336,6.758363556,-111.353600000,1371.600000000
337,6.758363556,-83.515200000,1371.600000000
338,6.758363556,-55.676800000,1371.600000000
339,6.758363556,-27.838400000,1371.600000000
340,6.758363556,0.000000000,1371.600000000
341,6.758363556,27.838400000,1371.600000000
342,6.758363556,55.676800000,1371.600000000
343,6.758363556,83.515200000,1371.600000000
344,6.758363556,111.353600000,1371.600000000
345,6.758363556,139.192000000,1371.600000000
346,6.758363556,167.030400000,1371.600000000
347,-94.841636444,167.030400000,1371.600000000
348,-77.908303110,167.030400000,1371.600000000
349,-60.974969777,167.030400000,1371.600000000
350,-44.041636444,167.030400000,1371.600000000
351,-27.108303110,167.030400000,1371.600000000
352,-10.174969777,167.030400000,1371.600000000
353,23.691696890,167.030400000,1371.600000000
354,40.625030223,167.030400000,1371.600000000
355,57.558363556,167.030400000,1371.600000000
356,74.491696890,167.030400000,1371.600000000
357,91.425030223,167.030400000,1371.600000000
358,108.358363556,167.030400000,1371.600000000
359,-94.841636444,-167.030400000,1371.600000000
360,-77.908303110,-167.030400000,1371.600000000
361,-60.974969777,-167.030400000,1371.600000000
362,-44.041636444,-167.030400000,1371.600000000
363,-27.108303110,-167.030400000,1371.600000000
364,-10.174969777,-167.030400000,1371.600000000
365,23.691696890,-167.030400000,1371.600000000
366,40.625030223,-167.030400000,1371.600000000
367,57.558363556,-167.030400000,1371.600000000
368,74.491696890,-167.030400000,1371.600000000
369,91.425030223,-167.030400000,1371.600000000
370,108.358363556,-167.030400000,1371.600000000
371,7.065940604,-167.030400000,1524.000000000
372,7.065940604,-139.192000000,1524.000000000
373,7.065940604,-111.353600000,1524.000000000
374,7.065940604,-83.515200000,1524.000000000
375,7.065940604,-55.676800000,1524.000000000
376,7.065940604,-27.838400000,1524.000000000
377,7.065940604,0.000000000,1524.000000000
378,7.065940604,27.838400000,1524.000000000
379,7.065940604,55.676800000,1524.000000000
380,7.065940604,83.515200000,1524.000000000
381,7.065940604,111.353600000,1524.000000000
382,7.065940604,139.192000000,1524.000000000
383,7.065940604,167.030400000,1524.000000000
384,-94.534059396,167.030400000,1524.000000000
385,-77.600726062,167.030400000,1524.000000000
386,-60.667392729,167.030400000,1524.000000000
387,-43.734059396,167.030400000,1524.000000000
388,-26.800726062,167.030400000,1524.000000000
389,-9.867392729,167.030400000,1524.000000000
390,23.999273938,167.030400000,1524.000000000
391,40.932607271,167.030400000,1524.000000000
392,57.865940604,167.030400000,1524.000000000
393,74.799273938,167.030400000,1524.000000000
394,91.732607271,167.030400000,1524.000000000
395,108.665940604,167.030400000,1524.000000000
396,-94.534059396,-167.030400000,1524.000000000
397,-77.600726062,-167.030400000,1524.000000000
398,-60.667392729,-167.030400000,1524.000000000
399,-43.734059396,-167.030400000,1524.000000000
400,-26.800726062,-167.030400000,1524.000000000
401,-9.867392729,-167.030400000,1524.000000000
402,23.999273938,-167.030400000,1524.000000000
403,40.932607271,-167.030400000,1524.000000000
404,57.865940604,-167.030400000,1524.000000000
405,74.799273938,-167.030400000,1524.000000000
406,91.732607271,-167.030400000,1524.000000000
407,108.665940604,-167.030400000,1524.000000000
408,7.252617450,-167.030400000,1676.400000000
409,7.252617450,-139.192000000,1676.400000000
410,7.252617450,-111.353600000,1676.400000000
411,7.252617450,-83.515200000,1676.400000000
412,7.252617450,-55.676800000,1676.400000000
413,7.252617450,-27.838400000,1676.400000000
414,7.252617450,0.000000000,1676.400000000
415,7.252617450,27.838400000,1676.400000000
416,7.252617450,55.676800000,1676.400000000
417,7.252617450,83.515200000,1676.400000000
418,7.252617450,111.353600000,1676.400000000
419,7.252617450,139.192000000,1676.400000000
420,7.252617450,167.030400000,1676.400000000
421,-94.347382550,167.030400000,1676.400000000
422,-77.414049217,167.030400000,1676.400000000
423,-60.480715883,167.030400000,1676.400000000
424,-43.547382550,167.030400000,1676.400000000
425,-26.614049217,167.030400000,1676.400000000
426,-9.680715883,167.030400000,1676.400000000
427,24.185950783,167.030400000,1676.400000000
428,41.119284117,167.030400000,1676.400000000
429,58.052617450,167.030400000,1676.400000000
430,74.985950783,167.030400000,1676.400000000
431,91.919284117,167.030400000,1676.400000000
432,108.852617450,167.030400000,1676.400000000
433,-94.347382550,-167.030400000,1676.400000000
434,-77.414049217,-167.030400000,1676.400000000
435,-60.480715883,-167.030400000,1676.400000000
436,-43.547382550,-167.030400000,1676.400000000
437,-26.614049217,-167.030400000,1676.400000000
438,-9.680715883,-167.030400000,1676.400000000
439,24.185950783,-167.030400000,1676.400000000
440,41.119284117,-167.030400000,1676.400000000
441,58.052617450,-167.030400000,1676.400000000
442,74.985950783,-167.030400000,1676.400000000
443,91.919284117,-167.030400000,1676.400000000
444,108.852617450,-167.030400000,1676.400000000
445,7.315200000,-167.030400000,1828.800000000
446,7.315200000,-139.192000000,1828.800000000
447,7.315200000,-111.353600000,1828.800000000
448,7.315200000,-83.515200000,1828.800000000
449,7.315200000,-55.676800000,1828.800000000
450,7.315200000,-27.838400000,1828.800000000
451,7.315200000,0.000000000,1828.800000000
452,7.315200000,27.838400000,1828.800000000
453,7.315200000,55.676800000,1828.800000000
454,7.315200000,83.515200000,1828.800000000
455,7.315200000,111.353600000,1828.800000000
456,7.315200000,139.192000000,1828.800000000
457,7.315200000,167.030400000,1828.800000000
458,-94.284800000,167.030400000,1828.800000000
459,-77.351466667,167.030400000,1828.800000000
460,-60.418133333,167.030400000,1828.800000000
461,-43.484800000,167.030400000,1828.800000000
462,-26.551466667,167.030400000,1828.800000000
463,-9.618133333,167.030400000,1828.800000000
464,24.248533333,167.030400000,1828.800000000
465,41.181866667,167.030400000,1828.800000000
466,58.115200000,167.030400000,1828.800000000
467,75.048533333,167.030400000,1828.800000000
468,91.981866667,167.030400000,1828.800000000
469,108.915200000,167.030400000,1828.800000000
470,-94.284800000,-167.030400000,1828.800000000
471,-77.351466667,-167.030400000,1828.800000000
472,-60.418133333,-167.030400000,1828.800000000
473,-43.484800000,-167.030400000,1828.800000000
474,-26.551466667,-167.030400000,1828.800000000
475,-9.618133333,-167.030400000,1828.800000000
476,24.248533333,-167.030400000,1828.800000000
477,41.181866667,-167.030400000,1828.800000000
478,58.115200000,-167.030400000,1828.800000000
479,75.048533333,-167.030400000,1828.800000000
480,91.981866667,-167.030400000,1828.800000000
481,108.915200000,-167.030400000,1828.800000000
482,7.252617450,-167.030400000,1981.200000000
483,7.252617450,-139.192000000,1981.200000000
484,7.252617450,-111.353600000,1981.200000000
485,7.252617450,-83.515200000,1981.200000000
486,7.252617450,-55.676800000,1981.200000000
487,7.252617450,-27.838400000,1981.200000000
488,7.252617450,0.000000000,1981.200000000
489,7.252617450,27.838400000,1981.200000000
490,7.252617450,55.676800000,1981.200000000
491,7.252617450,83.515200000,1981.200000000
492,7.252617450,111.353600000,1981.200000000
493,7.252617450,139.192000000,1981.200000000
494,7.252617450,167.030400000,1981.200000000
495,-94.347382550,167.030400000,1981.200000000
496,-77.414049217,167.030400000,1981.200000000
497,-60.480715883,167.030400000,1981.200000000
498,-43.547382550,167.030400000,1981.200000000
499,-26.614049217,167.030400000,1981.200000000
500,-9.680715883,167.030400000,1981.200000000
501,24.185950783,167.030400000,1981.200000000
502,41.119284117,167.030400000,1981.200000000
503,58.052617450,167.030400000,1981.200000000
504,74.985950783,167.030400000,1981.200000000
505,91.919284117,167.030400000,1981.200000000
506,108.852617450,167.030400000,1981.200000000
507,-94.347382550,-167.030400000,1981.200000000
508,-77.414049217,-167.030400000,1981.200000000
509,-60.480715883,-167.030400000,1981.200000000
510,-43.547382550,-167.030400000,1981.200000000
511,-26.614049217,-167.030400000,1981.200000000
512,-9.680715883,-167.030400000,1981.200000000
513,24.185950783,-167.030400000,1981.200000000
514,41.119284117,-167.030400000,1981.200000000
515,58.052617450,-167.030400000,1981.200000000
516,74.985950783,-167.030400000,1981.200000000
517,91.919284117,-167.030400000,1981.200000000
518,108.852617450,-167.030400000,1981.200000000
519,7.065940604,-167.030400000,2133.600000000
520,7.065940604,-139.192000000,2133.600000000
521,7.065940604,-111.353600000,2133.600000000
522,7.065940604,-83.515200000,2133.600000000
523,7.065940604,-55.676800000,2133.600000000
524,7.065940604,-27.838400000,2133.600000000
525,7.065940604,0.000000000,2133.600000000
526,7.065940604,27.838400000,2133.600000000
527,7.065940604,55.676800000,2133.600000000
528,7.065940604,83.515200000,2133.600000000
529,7.065940604,111.353600000,2133.600000000
530,7.065940604,139.192000000,2133.600000000
531,7.065940604,167.030400000,2133.600000000
532,-94.534059396,167.030400000,2133.600000000
533,-77.600726062,167.030400000,2133.600000000
534,-60.667392729,167.030400000,2133.600000000
535,-43.734059396,167.030400000,2133.600000000
536,-26.800726062,167.030400000,2133.600000000
537,-9.867392729,167.030400000,2133.600000000
538,23.999273938,167.030400000,2133.600000000
539,40.932607271,167.030400000,2133.600000000
540,57.865940604,167.030400000,2133.600000000
541,74.799273938,167.030400000,2133.600000000
542,91.732607271,167.030400000,2133.600000000
543,108.665940604,167.030400000,2133.600000000
544,-94.534059396,-167.030400000,2133.600000000
545,-77.600726062,-167.030400000,2133.600000000
546,-60.667392729,-167.030400000,2133.600000000
547,-43.734059396,-167.030400000,2133.600000000
548,-26.800726062,-167.030400000,2133.600000000
549,-9.867392729,-167.030400000,2133.600000000
550,23.999273938,-167.030400000,2133.600000000
551,40.932607271,-167.030400000,2133.600000000
552,57.865940604,-167.030400000,2133.600000000
553,74.799273938,-167.030400000,2133.600000000
554,91.732607271,-167.030400000,2133.600000000
555,108.665940604,-167.030400000,2133.600000000
556,6.758363556,-167.030400000,2286.000000000
557,6.758363556,-139.192000000,2286.000000000
558,6.758363556,-111.353600000,2286.000000000
559,6.758363556,-83.515200000,2286.000000000
560,6.758363556,-55.676800000,2286.000000000
561,6.758363556,-27.838400000,2286.000000000
562,6.758363556,0.000000000,2286.000000000
563,6.758363556,27.838400000,2286.000000000
564,6.758363556,55.676800000,2286.000000000
565,6.758363556,83.515200000,2286.000000000
566,6.758363556,111.353600000,2286.000000000
567,6.758363556,139.192000000,2286.000000000
568,6.758363556,167.030400000,2286.000000000
569,-94.841636444,167.030400000,2286.000000000
570,-77.908303110,167.030400000,2286.000000000
571,-60.974969777,167.030400000,2286.000000000
572,-44.041636444,167.030400000,2286.000000000
573,-27.108303110,167.030400000,2286.000000000
574,-10.174969777,167.030400000,2286.000000000
575,23.691696890,167.030400000,2286.000000000
576,40.625030223,167.030400000,2286.000000000
577,57.558363556,167.030400000,2286.000000000
578,74.491696890,167.030400000,2286.000000000
579,91.425030223,167.030400000,2286.000000000
580,108.358363556,167.030400000,2286.000000000
581,-94.841636444,-167.030400000,2286.000000000
582,-77.908303110,-167.030400000,2286.000000000
583,-60.974969777,-167.030400000,2286.000000000
584,-44.041636444,-167.030400000,2286.000000000
585,-27.108303110,-167.030400000,2286.000000000
586,-10.174969777,-167.030400000,2286.000000000
587,23.691696890,-167.030400000,2286.000000000
588,40.625030223,-167.030400000,2286.000000000
589,57.558363556,-167.030400000,2286.000000000
590,74.491696890,-167.030400000,2286.000000000
591,91.425030223,-167.030400000,2286.000000000
592,108.358363556,-167.030400000,2286.000000000
593,6.335149034,-167.030400000,2438.400000000
594,6.335149034,-139.192000000,2438.400000000
595,6.335149034,-111.353600000,2438.400000000
596,6.335149034,-83.515200000,2438.400000000
597,6.335149034,-55.676800000,2438.400000000
598,6.335149034,-27.838400000,2438.400000000
599,6.335149034,0.000000000,2438.400000000
600,6.335149034,27.838400000,2438.400000000
601,6.335149034,55.676800000,2438.400000000
602,6.335149034,83.515200000,2438.400000000
603,6.335149034,111.353600000,2438.400000000
604,6.335149034,139.192000000,2438.400000000
605,6.335149034,167.030400000,2438.400000000
606,-95.264850966,167.030400000,2438.400000000
607,-78.331517633,167.030400000,2438.400000000
608,-61.398184300,167.030400000,2438.400000000
609,-44.464850966,167.030400000,2438.400000000
610,-27.531517633,167.030400000,2438.400000000
611,-10.598184300,167.030400000,2438.400000000
612,23.268482367,167.030400000,2438.400000000
613,40.201815700,167.030400000,2438.400000000
614,57.135149034,167.030400000,2438.400000000
615,74.068482367,167.030400000,2438.400000000
616,91.001815700,167.030400000,2438.400000000
617,107.935149034,167.030400000,2438.400000000
618,-95.264850966,-167.030400000,2438.400000000
619,-78.331517633,-167.030400000,2438.400000000
620,-61.398184300,-167.030400000,2438.400000000
621,-44.464850966,-167.030400000,2438.400000000
622,-27.531517633,-167.030400000,2438.400000000
623,-10.598184300,-167.030400000,2438.400000000
624,23.268482367,-167.030400000,2438.400000000
625,40.201815700,-167.030400000,2438.400000000
626,57.135149034,-167.030400000,2438.400000000
627,74.068482367,-167.030400000,2438.400000000
628,91.001815700,-167.030400000,2438.400000000
629,107.935149034,-167.030400000,2438.400000000
630,5.803538355,-167.030400000,2590.800000000
631,5.803538355,-139.192000000,2590.800000000
632,5.803538355,-111.353600000,2590.800000000
633,5.803538355,-83.515200000,2590.800000000
634,5.803538355,-55.676800000,2590.800000000
635,5.803538355,-27.838400000,2590.800000000
636,5.803538355,0.000000000,2590.800000000
637,5.803538355,27.838400000,2590.800000000
638,5.803538355,55.676800000,2590.800000000
639,5.803538355,83.515200000,2590.800000000
640,5.803538355,111.353600000,2590.800000000
641,5.803538355,139.192000000,2590.800000000
642,5.803538355,167.030400000,2590.800000000
643,-95.796461645,167.030400000,2590.800000000
644,-78.863128312,167.030400000,2590.800000000
645,-61.929794978,167.030400000,2590.800000000
646,-44.996461645,167.030400000,2590.800000000
647,-28.063128312,167.030400000,2590.800000000
648,-11.129794978,167.030400000,2590.800000000
649,22.736871688,167.030400000,2590.800000000
650,39.670205022,167.030400000,2590.800000000
651,56.603538355,167.030400000,2590.800000000
652,73.536871688,167.030400000,2590.800000000
653,90.470205022,167.030400000,2590.800000000
654,107.403538355,167.030400000,2590.800000000
655,-95.796461645,-167.030400000,2590.800000000
656,-78.863128312,-167.030400000,2590.800000000
657,-61.929794978,-167.030400000,2590.800000000
658,-44.996461645,-167.030400000,2590.800000000
659,-28.063128312,-167.030400000,2590.800000000
660,-11.129794978,-167.030400000,2590.800000000
661,22.736871688,-167.030400000,2590.800000000
662,39.670205022,-167.030400000,2590.800000000
663,56.603538355,-167.030400000,2590.800000000
664,73.536871688,-167.030400000,2590.800000000
665,90.470205022,-167.030400000,2590.800000000
666,107.403538355,-167.030400000,2590.800000000
667,5.172627526,-167.030400000,2743.200000000
668,5.172627526,-139.192000000,2743.200000000
669,5.172627526,-111.353600000,2743.200000000
670,5.172627526,-83.515200000,2743.200000000
671,5.172627526,-55.676800000,2743.200000000
672,5.172627526,-27.838400000,2743.200000000
673,5.172627526,0.000000000,2743.200000000
674,5.172627526,27.838400000,2743.200000000
675,5.172627526,55.676800000,2743.200000000
676,5.172627526,83.515200000,2743.200000000
677,5.172627526,111.353600000,2743.200000000
678,5.172627526,139.192000000,2743.200000000
679,5.172627526,167.030400000,2743.200000000
680,-96.427372474,167.030400000,2743.200000000
681,-79.494039141,167.030400000,2743.200000000
682,-62.560705808,167.030400000,2743.200000000
683,-45.627372474,167.030400000,2743.200000000
684,-28.694039141,167.030400000,2743.200000000
685,-11.760705808,167.030400000,2743.200000000
686,22.105960859,167.030400000,2743.200000000
687,39.039294192,167.030400000,2743.200000000
688,55.972627526,167.030400000,2743.200000000
689,72.905960859,167.030400000,2743.200000000
690,89.839294192,167.030400000,2743.200000000
691,106.772627526,167.030400000,2743.200000000
692,-96.427372474,-167.030400000,2743.200000000
693,-79.494039141,-167.030400000,2743.200000000
694,-62.560705808,-167.030400000,2743.200000000
695,-45.627372474,-167.030400000,2743.200000000
696,-28.694039141,-167.030400000,2743.200000000
697,-11.760705808,-167.030400000,2743.200000000
698,22.105960859,-167.030400000,2743.200000000
699,39.039294192,-167.030400000,2743.200000000
700,55.972627526,-167.030400000,2743.200000000
701,72.905960859,-167.030400000,2743.200000000
702,89.839294192,-167.030400000,2743.200000000
703,106.772627526,-167.030400000,2743.200000000
704,4.453211605,-167.030400000,2895.600000000
705,4.453211605,-139.192000000,2895.600000000
706,4.453211605,-111.353600000,2895.600000000
707,4.453211605,-83.515200000,2895.600000000
708,4.453211605,-55.676800000,2895.600000000
709,4.453211605,-27.838400000,2895.600000000
710,4.453211605,0.000000000,2895.600000000
711,4.453211605,27.838400000,2895.600000000
712,4.453211605,55.676800000,2895.600000000
713,4.453211605,83.515200000,2895.600000000
714,4.453211605,111.353600000,2895.600000000
715,4.453211605,139.192000000,2895.600000000
716,4.453211605,167.030400000,2895.600000000
717,-97.146788395,167.030400000,2895.600000000
718,-80.213455061,167.030400000,2895.600000000
719,-63.280121728,167.030400000,2895.600000000
720,-46.346788395,167.030400000,2895.600000000
721,-29.413455061,167.030400000,2895.600000000
722,-12.480121728,167.030400000,2895.600000000
723,21.386544939,167.030400000,2895.600000000
724,38.319878272,167.030400000,2895.600000000
725,55.253211605,167.030400000,2895.600000000
726,72.186544939,167.030400000,2895.600000000
727,89.119878272,167.030400000,2895.600000000
728,106.053211605,167.030400000,2895.600000000
729,-97.146788395,-167.030400000,2895.600000000
730,-80.213455061,-167.030400000,2895.600000000
731,-63.280121728,-167.030400000,2895.600000000
732,-46.346788395,-167.030400000,2895.600000000
733,-29.413455061,-167.030400000,2895.600000000
734,-12.480121728,-167.030400000,2895.600000000
735,21.386544939,-167.030400000,2895.600000000
736,38.319878272,-167.030400000,2895.600000000
737,55.253211605,-167.030400000,2895.600000000
738,72.186544939,-167.030400000,2895.600000000
739,89.119878272,-167.030400000,2895.600000000
740,106.053211605,-167.030400000,2895.600000000
741,3.657600000,-167.030400000,3048.000000000
742,3.657600000,-139.192000000,3048.000000000
743,3.657600000,-111.353600000,3048.000000000
744,3.657600000,-83.515200000,3048.000000000
745,3.657600000,-55.676800000,3048.000000000
746,3.657600000,-27.838400000,3048.000000000
747,3.657600000,0.000000000,3048.000000000
748,3.657600000,27.838400000,3048.000000000
749,3.657600000,55.676800000,3048.000000000
750,3.657600000,83.515200000,3048.000000000
751,3.657600000,111.353600000,3048.000000000
752,3.657600000,139.192000000,3048.000000000
753,3.657600000,167.030400000,3048.000000000
754,-97.942400000,167.030400000,3048.000000000
755,-81.009066667,167.030400000,3048.000000000
756,-64.075733333,167.030400000,3048.000000000
757,-47.142400000,167.030400000,3048.000000000
758,-30.209066667,167.030400000,3048.000000000
759,-13.275733333,167.030400000,3048.000000000
760,20.590933333,167.030400000,3048.000000000
761,37.524266667,167.030400000,3048.000000000
762,54.457600000,167.030400000,3048.000000000
763,71.390933333,167.030400000,3048.000000000
764,88.324266667,167.030400000,3048.000000000
765,105.257600000,167.030400000,3048.000000000
766,-97.942400000,-167.030400000,3048.000000000
767,-81.009066667,-167.030400000,3048.000000000
768,-64.075733333,-167.030400000,3048.000000000
769,-47.142400000,-167.030400000,3048.000000000
770,-30.209066667,-167.030400000,3048.000000000
771,-13.275733333,-167.030400000,3048.000000000
772,20.590933333,-167.030400000,3048.000000000
773,37.524266667,-167.030400000,3048.000000000
774,54.457600000,-167.030400000,3048.000000000
775,71.390933333,-167.030400000,3048.000000000
776,88.324266667,-167.030400000,3048.000000000
777,105.257600000,-167.030400000,3048.000000000
778,2.799405844,-167.030400000,3200.400000000
779,2.799405844,-139.192000000,3200.400000000
780,2.799405844,-111.353600000,3200.400000000
781,2.799405844,-83.515200000,3200.400000000
782,2.799405844,-55.676800000,3200.400000000
783,2.799405844,-27.838400000,3200.400000000
784,2.799405844,0.000000000,3200.400000000
785,2.799405844,27.838400000,3200.400000000
786,2.799405844,55.676800000,3200.400000000
787,2.799405844,83.515200000,3200.400000000
788,2.799405844,111.353600000,3200.400000000
789,2.799405844,139.192000000,3200.400000000
790,2.799405844,167.030400000,3200.400000000
791,-98.800594156,167.030400000,3200.400000000
792,-81.867260822,167.030400000,3200.400000000
793,-64.933927489,167.030400000,3200.400000000
794,-48.000594156,167.030400000,3200.400000000
795,-31.067260822,167.030400000,3200.400000000
796,-14.133927489,167.030400000,3200.400000000
797,19.732739178,167.030400000,3200.400000000
798,36.666072511,167.030400000,3200.400000000
799,53.599405844,167.030400000,3200.400000000
800,70.532739178,167.030400000,3200.400000000
801,87.466072511,167.030400000,3200.400000000
802,104.399405844,167.030400000,3200.400000000
803,-98.800594156,-167.030400000,3200.400000000
804,-81.867260822,-167.030400000,3200.400000000
805,-64.933927489,-167.030400000,3200.400000000
806,-48.000594156,-167.030400000,3200.400000000
807,-31.067260822,-167.030400000,3200.400000000
808,-14.133927489,-167.030400000,3200.400000000
809,19.732739178,-167.030400000,3200.400000000
810,36.666072511,-167.030400000,3200.400000000
811,53.599405844,-167.030400000,3200.400000000
812,70.532739178,-167.030400000,3200.400000000
813,87.466072511,-167.030400000,3200.400000000
814,104.399405844,-167.030400000,3200.400000000
815,1.893313079,-167.030400000,3352.800000000
816,1.893313079,-139.192000000,3352.800000000
817,1.893313079,-111.353600000,3352.800000000
818,1.893313079,-83.515200000,3352.800000000
819,1.893313079,-55.676800000,3352.800000000
820,1.893313079,-27.838400000,3352.800000000
821,1.893313079,0.000000000,3352.800000000
822,1.893313079,27.838400000,3352.800000000
823,1.893313079,55.676800000,3352.800000000
824,1.893313079,83.515200000,3352.800000000
825,1.893313079,111.353600000,3352.800000000
826,1.893313079,139.192000000,3352.800000000
827,1.893313079,167.030400000,3352.800000000
828,-99.706686921,167.030400000,3352.800000000
829,-82.773353588,167.030400000,3352.800000000
830,-65.840020255,167.030400000,3352.800000000
831,-48.906686921,167.030400000,3352.800000000
832,-31.973353588,167.030400000,3352.800000000
833,-15.040020255,167.030400000,3352.800000000
834,18.826646412,167.030400000,3352.800000000
835,35.759979745,167.030400000,3352.800000000
836,52.693313079,167.030400000,3352.800000000
837,69.626646412,167.030400000,3352.800000000
838,86.559979745,167.030400000,3352.800000000
839,103.493313079,167.030400000,3352.800000000
840,-99.706686921,-167.030400000,3352.800000000
841,-82.773353588,-167.030400000,3352.800000000
842,-65.840020255,-167.030400000,3352.800000000
843,-48.906686921,-167.030400000,3352.800000000
844,-31.973353588,-167.030400000,3352.800000000
845,-15.040020255,-167.030400000,3352.800000000
846,18.826646412,-167.030400000,3352.800000000
847,35.759979745,-167.030400000,3352.800000000
848,52.693313079,-167.030400000,3352.800000000
849,69.626646412,-167.030400000,3352.800000000
850,86.559979745,-167.030400000,3352.800000000
851,103.493313079,-167.030400000,3352.800000000
852,0.954825201,-167.030400000,3505.200000000
853,0.954825201,-139.192000000,3505.200000000
854,0.954825201,-111.353600000,3505.200000000
855,0.954825201,-83.515200000,3505.200000000
856,0.954825201,-55.676800000,3505.200000000
857,0.954825201,-27.838400000,3505.200000000
858,0.954825201,0.000000000,3505.200000000
859,0.954825201,27.838400000,3505.200000000
860,0.954825201,55.676800000,3505.200000000
861,0.954825201,83.515200000,3505.200000000
862,0.954825201,111.353600000,3505.200000000
863,0.954825201,139.192000000,3505.200000000
864,0.954825201,167.030400000,3505.200000000
865,-100.645174799,167.030400000,3505.200000000
866,-83.711841465,167.030400000,3505.200000000
867,-66.778508132,167.030400000,3505.200000000
868,-49.845174799,167.030400000,3505.200000000
869,-32.911841465,167.030400000,3505.200000000
870,-15.978508132,167.030400000,3505.200000000
871,17.888158535,167.030400000,3505.200000000
872,34.821491868,167.030400000,3505.200000000
873,51.754825201,167.030400000,3505.200000000
874,68.688158535,167.030400000,3505.200000000
875,85.621491868,167.030400000,3505.200000000
876,102.554825201,167.030400000,3505.200000000
877,-100.645174799,-167.030400000,3505.200000000
878,-83.711841465,-167.030400000,3505.200000000
879,-66.778508132,-167.030400000,3505.200000000
880,-49.845174799,-167.030400000,3505.200000000
881,-32.911841465,-167.030400000,3505.200000000
882,-15.978508132,-167.030400000,3505.200000000
883,17.888158535,-167.030400000,3505.200000000
884,34.821491868,-167.030400000,3505.200000000
885,51.754825201,-167.030400000,3505.200000000
886,68.688158535,-167.030400000,3505.200000000
887,85.621491868,-167.030400000,3505.200000000
888,102.554825201,-167.030400000,3505.200000000
889,0.000000000,-167.030400000,3657.600000000
890,0.000000000,-139.192000000,3657.600000000
891,0.000000000,-111.353600000,3657.600000000
892,0.000000000,-83.515200000,3657.600000000
893,0.000000000,-55.676800000,3657.600000000
894,0.000000000,-27.838400000,3657.600000000
895,0.000000000,0.000000000,3657.600000000
896,0.000000000,27.838400000,3657.600000000
897,0.000000000,55.676800000,3657.600000000
898,0.000000000,83.515200000,3657.600000000
899,0.000000000,111.353600000,3657.600000000
900,0.000000000,139.192000000,3657.600000000
901,0.000000000,167.030400000,3657.600000000
902,-101.600000000,167.030400000,3657.600000000
903,-84.666666667,167.030400000,3657.600000000
904,-67.733333333,167.030400000,3657.600000000
905,-50.800000000,167.030400000,3657.600000000
906,-33.866666667,167.030400000,3657.600000000
907,-16.933333333,167.030400000,3657.600000000
908,16.933333333,167.030400000,3657.600000000
909,33.866666667,167.030400000,3657.600000000
910,50.800000000,167.030400000,3657.600000000
911,67.733333333,167.030400000,3657.600000000
912,84.666666667,167.030400000,3657.600000000
913,101.600000000,167.030400000,3657.600000000
914,-101.600000000,-167.030400000,3657.600000000
915,-84.666666667,-167.030400000,3657.600000000
916,-67.733333333,-167.030400000,3657.600000000
917,-50.800000000,-167.030400000,3657.600000000
918,-33.866666667,-167.030400000,3657.600000000
919,-16.933333333,-167.030400000,3657.600000000
920,16.933333333,-167.030400000,3657.600000000
921,33.866666667,-167.030400000,3657.600000000
922,50.800000000,-167.030400000,3657.600000000
923,67.733333333,-167.030400000,3657.600000000
924,84.666666667,-167.030400000,3657.600000000
925,101.600000000,-167.030400000,3657.600000000
926,0.,0.,0.
927,0.,0.,0.
928,0.,0.,3657.6
929,0.,0.,3657.6
*ELEMENT,TYPE=S4R,ELSET=WEB
1,1,2,39,38
2,2,3,40,39
3,3,4,41,40
4,4,5,42,41
5,5,6,43,42
6,6,7,44,43
7,7,8,45,44
8,8,9,46,45
9,9,10,47,46
10,10,11,48,47
11,11,12,49,48
12,12,13,50,49
13,38,39,76,75
14,39,40,77,76
15,40,41,78,77
16,41,42,79,78
17,42,43,80,79
18,43,44,81,80
19,44,45,82,81
20,45,46,83,82
21,46,47,84,83
22,47,48,85,84
23,48,49,86,85
24,49,50,87,86
25,75,76,113,112
26,76,77,114,113
27,77,78,115,114
28,78,79,116,115
29,79,80,117,116
30,80,81,118,117
31,81,82,119,118
32,82,83,120,119
33,83,84,121,120
34,84,85,122,121
35,85,86,123,122
36,86,87,124,123
37,112,113,150,149
38,113,114,151,150
39,114,115,152,151
40,115,116,153,152
41,116,117,154,153
42,117,118,155,154
43,118,119,156,155
44,119,120,157,156
45,120,121,158,157
46,121,122,159,158
47,122,123,160,159
48,123,124,161,160
49,149,150,187,186
50,150,151,188,187
51,151,152,189,188
52,152,153,190,189
53,153,154,191,190
54,154,155,192,191
55,155,156,193,192
56,156,157,194,193
57,157,158,195,194
58,158,159,196,195
59,159,160,197,196
60,160,161,198,197
61,186,187,224,223
62,187,188,225,224
63,188,189,226,225
64,189,190,227,226
65,190,191,228,227
66,191,192,229,228
67,192,193,230,229
68,193,194,231,230
69,194,195,232,231
70,195,196,233,232
71,196,197,234,233
72,197,198,235,234
73,223,224,261,260
74,224,225,262,261
75,225,226,263,262
76,226,227,264,263
77,227,228,265,264
78,228,229,266,265
79,229,230,267,266
80,230,231,268,267
81,231,232,269,268
82,232,233,270,269
83,233,234,271,270
84,234,235,272,271
85,260,261,298,297
86,261,262,299,298
87,262,263,300,299
88,263,264,301,300
89,264,265,302,301
90,265,266,303,302
91,266,267,304,303
92,267,268,305,304
93,268,269,306,305
94,269,270,307,306
95,270,271,308,307
96,271,272,309,308
97,297,298,335,334
98,298,299,336,335
99,299,300,337,336
100,300,301,338,337
101,301,302,339,338
102,302,303,340,339
103,303,304,341,340
104,304,305,342,341
105,305,306,343,342
106,306,307,344,343
107,307,308,345,344
108,308,309,346,345
109,334,335,372,371
110,335,336,373,372
111,336,337,374,373
112,337,338,375,374
113,338,339,376,375
114,339,340,377,376
115,340,341,378,377
116,341,342,379,378
117,342,343,380,379
118,343,344,381,380
119,344,345,382,381
120,345,346,383,382
121,371,372,409,408
122,372,373,410,409
123,373,374,411,410
124,374,375,412,411
125,375,376,413,412
126,376,377,414,413
127,377,378,415,414
128,378,379,416,415
129,379,380,417,416
130,380,381,418,417
131,381,382,419,418
132,382,383,420,419
133,408,409,446,445
134,409,410,447,446
135,410,411,448,447
136,411,412,449,448
137,412,413,450,449
138,413,414,451,450
139,414,415,452,451
140,415,416,453,452
141,416,417,454,453
142,417,418,455,454
143,418,419,456,455
144,419,420,457,456
145,445,446,483,482
146,446,447,484,483
147,447,448,485,484
148,448,449,486,485
149,449,450,487,486
150,450,451,488,487
151,451,452,489,488
152,452,453,490,489
153,453,454,491,490
154,454,455,492,491
155,455,456,493,492
156,456,457,494,493
157,482,483,520,519
158,483,484,521,520
159,484,485,522,521
160,485,486,523,522
161,486,487,524,523
162,487,488,525,524
163,488,489,526,525
164,489,490,527,526
165,490,491,528,527
166,491,492,529,528
167,492,493,530,529
168,493,494,531,530
169,519,520,557,556
170,520,521,558,557
171,521,522,559,558
172,522,523,560,559
173,523,524,561,560
174,524,525,562,561
175,525,526,563,562
176,526,527,564,563
177,527,528,565,564
178,528,529,566,565
179,529,530,567,566
180,530,531,568,567
181,556,557,594,593
182,557,558,595,594
183,558,559,596,595
184,559,560,597,596
185,560,561,598,597
186,561,562,599,598
187,562,563,600,599
188,563,564,601,600
189,564,565,602,601
190,565,566,603,602
191,566,567,604,603
192,567,568,605,604
193,593,594,631,630
194,594,595,632,631
195,595,596,633,632
196,596,597,634,633
197,597,598,635,634
198,598,599,636,635
199,599,600,637,636
200,600,601,638,637
201,601,602,639,638
202,602,603,640,639
203,603,604,641,640
204,604,605,642,641
205,630,631,668,667
206,631,632,669,668
207,632,633,670,669
208,633,634,671,670
209,634,635,672,671
210,635,636,673,672
211,636,637,674,673
212,637,638,675,674
213,638,639,676,675
214,639,640,677,676
215,640,641,678,677
216,641,642,679,678
217,667,668,705,704
218,668,669,706,705
219,669,670,707,706
220,670,671,708,707
221,671,672,709,708
222,672,673,710,709
223,673,674,711,710
224,674,675,712,711
225,675,676,713,712
226,676,677,714,713
227,677,678,715,714
228,678,679,716,715
229,704,705,742,741
230,705,706,743,742
231,706,707,744,743
232,707,708,745,744
233,708,709,746,745
234,709,710,747,746
235,710,711,748,747
236,711,712,749,748
237,712,713,750,749
238,713,714,751,750
239,714,715,752,751
240,715,716,753,752
241,741,742,779,778
242,742,743,780,779
243,743,744,781,780
244,744,745,782,781
245,745,746,783,782
246,746,747,784,783
247,747,748,785,784
248,748,749,786,785
249,749,750,787,786
250,750,751,788,787
251,751,752,789,788
252,752,753,790,789
253,778,779,816,815
254,779,780,817,816
255,780,781,818,817
256,781,782,819,818
257,782,783,820,819
258,783,784,821,820
259,784,785,822,821
260,785,786,823,822
261,786,787,824,823
262,787,788,825,824
263,788,789,826,825
264,789,790,827,826
265,815,816,853,852
266,816,817,854,853
267,817,818,855,854
268,818,819,856,855
269,819,820,857,856
270,820,821,858,857
271,821,822,859,858
272,822,823,860,859
273,823,824,861,860
274,824,825,862,861
275,825,826,863,862
276,826,827,864,863
277,852,853,890,889
278,853,854,891,890
279,854,855,892,891
280,855,856,893,892
281,856,857,894,893
282,857,858,895,894
283,858,859,896,895
284,859,860,897,896
285,860,861,898,897
286,861,862,899,898
287,862,863,900,899
288,863,864,901,900
*ELEMENT,TYPE=S4R,ELSET=TOPFLANGE
289,14,15,52,51
290,15,16,53,52
291,16,17,54,53
292,17,18,55,54
293,18,19,56,55
294,19,13,50,56
295,13,20,57,50
296,20,21,58,57
297,21,22,59,58
298,22,23,60,59
299,23,24,61,60
300,24,25,62,61
301,51,52,89,88
302,52,53,90,89
303,53,54,91,90
304,54,55,92,91
305,55,56,93,92
306,56,50,87,93
307,50,57,94,87
308,57,58,95,94
309,58,59,96,95
310,59,60,97,96
311,60,61,98,97
312,61,62,99,98
313,88,89,126,125
314,89,90,127,126
315,90,91,128,127
316,91,92,129,128
317,92,93,130,129
318,93,87,124,130
319,87,94,131,124
320,94,95,132,131
321,95,96,133,132
322,96,97,134,133
323,97,98,135,134
324,98,99,136,135
325,125,126,163,162
326,126,127,164,163
327,127,128,165,164
328,128,129,166,165
329,129,130,167,166
330,130,124,161,167
331,124,131,168,161
332,131,132,169,168
333,132,133,170,169
334,133,134,171,170
335,134,135,172,171
336,135,136,173,172
337,162,163,200,199
338,163,164,201,200
339,164,165,202,201
340,165,166,203,202
341,166,167,204,203
342,167,161,198,204
343,161,168,205,198
344,168,169,206,205
345,169,170,207,206
346,170,171,208,207
347,171,172,209,208
348,172,173,210,209
349,199,200,237,236
350,200,201,238,237
351,201,202,239,238
352,202,203,240,239
353,203,204,241,240
354,204,198,235,241
355,198,205,242,235
356,205,206,243,242
357,206,207,244,243
358,207,208,245,244
359,208,209,246,245
360,209,210,247,246
361,236,237,274,273
362,237,238,275,274
363,238,239,276,275
364,239,240,277,276
365,240,241,278,277
366,241,235,272,278
367,235,242,279,272
368,242,243,280,279
369,243,244,281,280
370,244,245,282,281
371,245,246,283,282
372,246,247,284,283
373,273,274,311,310
374,274,275,312,311
375,275,276,313,312
376,276,277,314,313
377,277,278,315,314
378,278,272,309,315
379,272,279,316,309
380,279,280,317,316
381,280,281,318,317
382,281,282,319,318
383,282,283,320,319
384,283,284,321,320
385,310,311,348,347
386,311,312,349,348
387,312,313,350,349
388,313,314,351,350
389,314,315,352,351
390,315,309,346,352
391,309,316,353,346
392,316,317,354,353
393,317,318,355,354
394,318,319,356,355
395,319,320,357,356
396,320,321,358,357
397,347,348,385,384
398,348,349,386,385
399,349,350,387,386
400,350,351,388,387
401,351,352,389,388
402,352,346,383,389
403,346,353,390,383
404,353,354,391,390
405,354,355,392,391
406,355,356,393,392
407,356,357,394,393
408,357,358,395,394
409,384,385,422,421
410,385,386,423,422
411,386,387,424,423
412,387,388,425,424
413,388,389,426,425
414,389,383,420,426
415,383,390,427,420
416,390,391,428,427
417,391,392,429,428
418,392,393,430,429
419,393,394,431,430
420,394,395,432,431
421,421,422,459,458
422,422,423,460,459
423,423,424,461,460
424,424,425,462,461
425,425,426,463,462
426,426,420,457,463
427,420,427,464,457
428,427,428,465,464
429,428,429,466,465
430,429,430,467,466
431,430,431,468,467
432,431,432,469,468
433,458,459,496,495
434,459,460,497,496
435,460,461,498,497
436,461,462,499,498
437,462,463,500,499
438,463,457,494,500
439,457,464,501,494
440,464,465,502,501
441,465,466,503,502
442,466,467,504,503
443,467,468,505,504
444,468,469,506,505
445,495,496,533,532
446,496,497,534,533
447,497,498,535,534
448,498,499,536,535
449,499,500,537,536
450,500,494,531,537
451,494,501,538,531
452,501,502,539,538
453,502,503,540,539
454,503,504,541,540
455,504,505,542,541
456,505,506,543,542
457,532,533,570,569
458,533,534,571,570
459,534,535,572,571
460,535,536,573,572
461,536,537,574,573
462,537,531,568,574
463,531,538,575,568
464,538,539,576,575
465,539,540,577,576
466,540,541,578,577
467,541,542,579,578
468,542,543,580,579
469,569,570,607,606
470,570,571,608,607
471,571,572,609,608
472,572,573,610,609
473,573,574,611,610
474,574,568,605,611
475,568,575,612,605
476,575,576,613,612
477,576,577,614,613
478,577,578,615,614
479,578,579,616,615
480,579,580,617,616
481,606,607,644,643
482,607,608,645,644
483,608,609,646,645
484,609,610,647,646
485,610,611,648,647
486,611,605,642,648
487,605,612,649,642
488,612,613,650,649
489,613,614,651,650
490,614,615,652,651
491,615,616,653,652
492,616,617,654,653
493,643,644,681,680
494,644,645,682,681
495,645,646,683,682
496,646,647,684,683
497,647,648,685,684
498,648,642,679,685
499,642,649,686,679
500,649,650,687,686
501,650,651,688,687
502,651,652,689,688
503,652,653,690,689
504,653,654,691,690
505,680,681,718,717
506,681,682,719,718
507,682,683,720,719
508,683,684,721,720
509,684,685,722,721
510,685,679,716,722
511,679,686,723,716
512,686,687,724,723
513,687,688,725,724
514,688,689,726,725
515,689,690,727,726
516,690,691,728,727
517,717,718,755,754
518,718,719,756,755
519,719,720,757,756
520,720,721,758,757
521,721,722,759,758
522,722,716,753,759
523,716,723,760,753
524,723,724,761,760
525,724,725,762,761
526,725,726,763,762
527,726,727,764,763
528,727,728,765,764
529,754,755,792,791
530,755,756,793,792
531,756,757,794,793
532,757,758,795,794
533,758,759,796,795
534,759,753,790,796
535,753,760,797,790
536,760,761,798,797
537,761,762,799,798
538,762,763,800,799
539,763,764,801,800
540,764,765,802,801
541,791,792,829,828
542,792,793,830,829
543,793,794,831,830
544,794,795,832,831
545,795,796,833,832
546,796,790,827,833
547,790,797,834,827
548,797,798,835,834
549,798,799,836,835
550,799,800,837,836
551,800,801,838,837
552,801,802,839,838
553,828,829,866,865
554,829,830,867,866
555,830,831,868,867
556,831,832,869,868
557,832,833,870,869
558,833,827,864,870
559,827,834,871,864
560,834,835,872,871
561,835,836,873,872
562,836,837,874,873
563,837,838,875,874
564,838,839,876,875
565,865,866,903,902
566,866,867,904,903
567,867,868,905,904
568,868,869,906,905
569,869,870,907,906
570,870,864,901,907
571,864,871,908,901
572,871,872,909,908
573,872,873,910,909
574,873,874,911,910
575,874,875,912,911
576,875,876,913,912
*ELEMENT,TYPE=S4R,ELSET=BOTTOMFLANGE
577,26,27,64,63
578,27,28,65,64
579,28,29,66,65
580,29,30,67,66
581,30,31,68,67
582,31,1,38,68
583,1,32,69,38
584,32,33,70,69
585,33,34,71,70
586,34,35,72,71
587,35,36,73,72
588,36,37,74,73
589,63,64,101,100
590,64,65,102,101
591,65,66,103,102
592,66,67,104,103
593,67,68,105,104
594,68,38,75,105
595,38,69,106,75
596,69,70,107,106
597,70,71,108,107
598,71,72,109,108
599,72,73,110,109
600,73,74,111,110
601,100,101,138,137
602,101,102,139,138
603,102,103,140,139
604,103,104,141,140
605,104,105,142,141
606,105,75,112,142
607,75,106,143,112
608,106,107,144,143
609,107,108,145,144
610,108,109,146,145
611,109,110,147,146
612,110,111,148,147
613,137,138,175,174
614,138,139,176,175
615,139,140,177,176
616,140,141,178,177
617,141,142,179,178
618,142,112,149,179
619,112,143,180,149
620,143,144,181,180
621,144,145,182,181
622,145,146,183,182
623,146,147,184,183
624,147,148,185,184
625,174,175,212,211
626,175,176,213,212
627,176,177,214,213
628,177,178,215,214
629,178,179,216,215
630,179,149,186,216
631,149,180,217,186
632,180,181,218,217
633,181,182,219,218
634,182,183,220,219
635,183,184,221,220
636,184,185,222,221
637,211,212,249,248
638,212,213,250,249
639,213,214,251,250
640,214,215,252,251
641,215,216,253,252
642,216,186,223,253
643,186,217,254,223
644,217,218,255,254
645,218,219,256,255
646,219,220,257,256
647,220,221,258,257
648,221,222,259,258
649,248,249,286,285
650,249,250,287,286
651,250,251,288,287
652,251,252,289,288
653,252,253,290,289
654,253,223,260,290
655,223,254,291,260
656,254,255,292,291
657,255,256,293,292
658,256,257,294,293
659,257,258,295,294
660,258,259,296,295
661,285,286,323,322
662,286,287,324,323
663,287,288,325,324
664,288,289,326,325
665,289,290,327,326
666,290,260,297,327
667,260,291,328,297
668,291,292,329,328
669,292,293,330,329
670,293,294,331,330
671,294,295,332,331
672,295,296,333,332
673,322,323,360,359
674,323,324,361,360
675,324,325,362,361
676,325,326,363,362
677,326,327,364,363
678,327,297,334,364
679,297,328,365,334
680,328,329,366,365
681,329,330,367,366
682,330,331,368,367
683,331,332,369,368
684,332,333,370,369
685,359,360,397,396
686,360,361,398,397
687,361,362,399,398
688,362,363,400,399
689,363,364,401,400
690,364,334,371,401
691,334,365,402,371
692,365,366,403,402
693,366,367,404,403
694,367,368,405,404
695,368,369,406,405
696,369,370,407,406
697,396,397,434,433
698,397,398,435,434
699,398,399,436,435
700,399,400,437,436
701,400,401,438,437
702,401,371,408,438
703,371,402,439,408
704,402,403,440,439
705,403,404,441,440
706,404,405,442,441
707,405,406,443,442
708,406,407,444,443
709,433,434,471,470
710,434,435,472,471
711,435,436,473,472
712,436,437,474,473
713,437,438,475,474
714,438,408,445,475
715,408,439,476,445
716,439,440,477,476
717,440,441,478,477
718,441,442,479,478
719,442,443,480,479
720,443,444,481,480
721,470,471,508,507
722,471,472,509,508
723,472,473,510,509
724,473,474,511,510
725,474,475,512,511
726,475,445,482,512
727,445,476,513,482
728,476,477,514,513
729,477,478,515,514
730,478,479,516,515
731,479,480,517,516
732,480,481,518,517
733,507,508,545,544
734,508,509,546,545
735,509,510,547,546
736,510,511,548,547
737,511,512,549,548
738,512,482,519,549
739,482,513,550,519
740,513,514,551,550
741,514,515,552,551
742,515,516,553,552
743,516,517,554,553
744,517,518,555,554
745,544,545,582,581
746,545,546,583,582
747,546,547,584,583
748,547,548,585,584
749,548,549,586,585
750,549,519,556,586
751,519,550,587,556
752,550,551,588,587
753,551,552,589,588
754,552,553,590,589
755,553,554,591,590
756,554,555,592,591
757,581,582,619,618
758,582,583,620,619
759,583,584,621,620
760,584,585,622,621
761,585,586,623,622
762,586,556,593,623
763,556,587,624,593
764,587,588,625,624
765,588,589,626,625
766,589,590,627,626
767,590,591,628,627
768,591,592,629,628
769,618,619,656,655
770,619,620,657,656
771,620,621,658,657
772,621,622,659,658
773,622,623,660,659
774,623,593,630,660
775,593,624,661,630
776,624,625,662,661
777,625,626,663,662
778,626,627,664,663
779,627,628,665,664
780,628,629,666,665
781,655,656,693,692
782,656,657,694,693
783,657,658,695,694
784,658,659,696,695
785,659,660,697,696
786,660,630,667,697
787,630,661,698,667
788,661,662,699,698
789,662,663,700,699
790,663,664,701,700
791,664,665,702,701
792,665,666,703,702
793,692,693,730,729
794,693,694,731,730
795,694,695,732,731
796,695,696,733,732
797,696,697,734,733
798,697,667,704,734
799,667,698,735,704
800,698,699,736,735
801,699,700,737,736
802,700,701,738,737
803,701,702,739,738
804,702,703,740,739
805,729,730,767,766
806,730,731,768,767
807,731,732,769,768
808,732,733,770,769
809,733,734,771,770
810,734,704,741,771
811,704,735,772,741
812,735,736,773,772
813,736,737,774,773
814,737,738,775,774
815,738,739,776,775
816,739,740,777,776
817,766,767,804,803
818,767,768,805,804
819,768,769,806,805
820,769,770,807,806
821,770,771,808,807
822,771,741,778,808
823,741,772,809,778
824,772,773,810,809
825,773,774,811,810
826,774,775,812,811
827,775,776,813,812
828,776,777,814,813
829,803,804,841,840
830,804,805,842,841
831,805,806,843,842
832,806,807,844,843
833,807,808,845,844
834,808,778,815,845
835,778,809,846,815
836,809,810,847,846
837,810,811,848,847
838,811,812,849,848
839,812,813,850,849
840,813,814,851,850
841,840,841,878,877
842,841,842,879,878
843,842,843,880,879
844,843,844,881,880
845,844,845,882,881
846,845,815,852,882
847,815,846,883,852
848,846,847,884,883
849,847,848,885,884
850,848,849,886,885
851,849,850,887,886
852,850,851,888,887
853,877,878,915,914
854,878,879,916,915
855,879,880,917,916
856,880,881,918,917
857,881,882,919,918
858,882,852,889,919
859,852,883,920,889
860,883,884,921,920
861,884,885,922,921
862,885,886,923,922
863,886,887,924,923
864,887,888,925,924
*NSET,NSET=BASE
1,2,3,4,5,6,7,8,9,10,11,12,13,14,15,16
17,18,19,20,21,22,23,24,25,26,27,28,29,30,31,32
33,34,35,36,37
*NSET,NSET=TOP
889,890,891,892,893,894,895,896,897,898,899,900,901,902,903,904
905,906,907,908,909,910,911,912,913,914,915,916,917,918,919,920
921,922,923,924,925
*NSET,NSET=BASE_REF
926
*NSET,NSET=BASE_ROT
927
*NSET,NSET=TOP_REF
928
*NSET,NSET=TOP_ROT
929
*RIGID BODY,NSET=BASE,REF NODE=926,ROT NODE=927
*RIGID BODY,NSET=TOP,REF NODE=928,ROT NODE=929
*MATERIAL,NAME=STEEL
*ELASTIC
178200.115757720,0.3
*PLASTIC
215.635442115,0.
217.791796536,0.10
*SHELL SECTION,ELSET=WEB,MATERIAL=STEEL
7.823200000
*SHELL SECTION,ELSET=TOPFLANGE,MATERIAL=STEEL
13.411200000
*SHELL SECTION,ELSET=BOTTOMFLANGE,MATERIAL=STEEL
13.411200000
*STEP,NLGEOM,INC=1000
*STATIC
0.002,1.,1.e-8,0.02
*BOUNDARY
BASE_REF,1,3
BASE_ROT,3,3
TOP_REF,1,2
TOP_REF,3,3,-400.0
*NODE PRINT,NSET=TOP_REF,FREQUENCY=1
U
*NODE PRINT,NSET=BASE_REF,TOTALS=ONLY,FREQUENCY=1
RF
*NODE PRINT,NSET=BASE,TOTALS=ONLY,FREQUENCY=1
RF
*END STEP
